##TITLE=HMDB0000902, Simulated spectrum from predictions
##JCAMP-DX=4.24
##ORIGIN=NP-MRD
##OWNER=NP-MRD
##DATA TYPE=LINK
##DATE=22/02/07
##TIME=18:18:11
##LONG DATE=2022/02/07 18:18:11 
##TITLE=NAD
##JCAMP-CS=3.7
##ORIGIN=UNKNOWN
##OWNER=UNKNOWN
##DATE=22/02/07
##TIME=18:18:11
##BLOCK_ID=1
##CROSS REFERENCE=NMR PEAK ASSIGNMENTS:BLOCK_ID=4
##LONG DATE=2022/02/07 18:18:11 
##MOLFORM=C21 H27 N7 O14 P2
##ATOMLIST=
1 N 0
2 C 0
3 O 0
4 C 0
5 C 0
6 C 0
7 C 0
8 N 0
9 C 0
10 O 0
11 C 0
12 C 0
13 O 0
14 P 0
15 O 0
16 O 0
17 O 0
18 P 0
19 O 0
20 O 0
21 O 0
22 C 0
23 C 0
24 O 0
25 C 0
26 N 0
27 C 0
28 N 0
29 C 0
30 C 0
31 N 0
32 N 0
33 C 0
34 N 0
35 C 0
36 C 0
37 O 0
38 C 0
39 O 0
40 C 0
41 O 0
42 C 0
43 O 0
44 C 0
45 H 0
46 H 0
47 H 0
48 H 0
49 H 0
50 H 0
51 H 0
52 H 0
53 H 0
54 H 0
55 H 0
56 H 0
57 H 0
58 H 0
59 H 0
60 H 0
61 H 0
62 H 0
63 H 0
64 H 0
65 H 0
66 H 0
67 H 0
68 H 0
69 H 0
70 H 0
71 H 0
##BONDLIST=
1 2 S
2 3 D
2 4 S
4 5 D
5 6 S
6 7 D
7 8 S
8 9 S
9 10 S
10 11 S
11 12 S
12 13 S
13 14 S
14 15 D
14 16 S
14 17 S
17 18 S
18 19 D
18 20 S
18 21 S
21 22 S
22 23 S
23 24 S
24 25 S
25 26 S
26 27 S
27 28 D
28 29 S
29 30 D
30 31 S
30 32 S
32 33 D
33 34 S
34 35 D
25 36 S
36 37 S
36 38 S
38 39 S
11 40 S
40 41 S
40 42 S
42 43 S
8 44 D
44 4 S
42 9 S
38 23 S
35 26 S
35 29 S
1 45 S
1 46 S
5 47 S
6 48 S
7 49 S
9 50 S
11 51 S
12 52 S
12 53 S
20 54 S
22 55 S
22 56 S
23 57 S
25 58 S
27 59 S
31 60 S
31 61 S
33 62 S
36 63 S
37 64 S
38 65 S
39 66 S
40 67 S
41 68 S
42 69 S
43 70 S
44 71 S
##CHARGE=
+1 8
-1 16
##STEREOCENTER=
9 M 0
11 M 0
14 M 0
18 P 0
23 P 0
25 P 0
36 M 0
38 M 0
40 P 0
42 P 0
##$MOLFILE=HMDB0000902
     RDKit          3D
NAD
 71 75  0  0  0  0  0  0  0  0999 V2000
   -9.8142   -0.0474    2.5198 N   0  0  0  0  0  0  0  0  0  0  0  0
   -8.5540   -0.1227    1.8582 C   0  0  0  0  0  0  0  0  0  0  0  0
   -7.4718   -0.2531    2.4715 O   0  0  0  0  0  0  0  0  0  0  0  0
   -8.5244   -0.0447    0.4075 C   0  0  0  0  0  0  0  0  0  0  0  0
   -9.7022    0.1005   -0.3241 C   0  0  0  0  0  0  0  0  0  0  0  0
   -9.6207    0.1696   -1.6909 C   0  0  0  0  0  0  0  0  0  0  0  0
   -8.3922    0.0958   -2.3172 C   0  0  0  0  0  0  0  0  0  0  0  0
   -7.2736   -0.0434   -1.6000 N   0  0  0  0  0  4  0  0  0  0  0  0
   -5.9775   -0.1198   -2.2857 C   0  0  2  0  0  0  0  0  0  0  0  0
   -4.9992   -0.4278   -1.3793 O   0  0  0  0  0  0  0  0  0  0  0  0
   -3.9289    0.4464   -1.5587 C   0  0  2  0  0  0  0  0  0  0  0  0
   -3.0704    0.5334   -0.3261 C   0  0  0  0  0  0  0  0  0  0  0  0
   -2.5391   -0.6997    0.0171 O   0  0  0  0  0  0  0  0  0  0  0  0
   -1.5796   -0.6463    1.3807 P   0  0  0  0  0  5  0  0  0  0  0  0
   -2.2112   -1.5579    2.4342 O   0  0  0  0  0  0  0  0  0  0  0  0
   -1.5415    0.9085    2.0779 O   0  0  0  0  0  1  0  0  0  0  0  0
   -0.0165   -1.1869    1.1329 O   0  0  0  0  0  0  0  0  0  0  0  0
    1.1043    0.0765    1.1163 P   0  0  0  0  0  5  0  0  0  0  0  0
    0.4952    1.2613    0.3948 O   0  0  0  0  0  0  0  0  0  0  0  0
    1.4417    0.5052    2.7156 O   0  0  0  0  0  0  0  0  0  0  0  0
    2.5126   -0.3571    0.2906 O   0  0  0  0  0  0  0  0  0  0  0  0
    3.1158   -1.4620    0.8747 C   0  0  0  0  0  0  0  0  0  0  0  0
    4.3664   -1.7925    0.0864 C   0  0  1  0  0  0  0  0  0  0  0  0
    5.2698   -0.7301    0.0840 O   0  0  0  0  0  0  0  0  0  0  0  0
    6.4440   -1.3686   -0.3511 C   0  0  1  0  0  0  0  0  0  0  0  0
    7.5753   -0.4752   -0.3080 N   0  0  0  0  0  0  0  0  0  0  0  0
    8.7329   -0.6187   -0.9433 C   0  0  0  0  0  0  0  0  0  0  0  0
    9.5663    0.4141   -0.6707 N   0  0  0  0  0  0  0  0  0  0  0  0
    8.9106    1.2281    0.1600 C   0  0  0  0  0  0  0  0  0  0  0  0
    9.2982    2.4323    0.7520 C   0  0  0  0  0  0  0  0  0  0  0  0
   10.5747    2.9954    0.5151 N   0  0  0  0  0  0  0  0  0  0  0  0
    8.3898    3.0165    1.5536 N   0  0  0  0  0  0  0  0  0  0  0  0
    7.1694    2.5058    1.7980 C   0  0  0  0  0  0  0  0  0  0  0  0
    6.8321    1.3441    1.2097 N   0  0  0  0  0  0  0  0  0  0  0  0
    7.6701    0.6826    0.3915 C   0  0  0  0  0  0  0  0  0  0  0  0
    6.5571   -2.4775    0.6804 C   0  0  2  0  0  0  0  0  0  0  0  0
    7.4101   -3.4803    0.2794 O   0  0  0  0  0  0  0  0  0  0  0  0
    5.1049   -2.9601    0.7323 C   0  0  2  0  0  0  0  0  0  0  0  0
    4.9856   -4.0421   -0.1289 O   0  0  0  0  0  0  0  0  0  0  0  0
   -4.6545    1.7530   -1.8052 C   0  0  1  0  0  0  0  0  0  0  0  0
   -3.8537    2.7420   -2.3090 O   0  0  0  0  0  0  0  0  0  0  0  0
   -5.7057    1.2736   -2.8149 C   0  0  1  0  0  0  0  0  0  0  0  0
   -5.0369    1.1763   -4.0409 O   0  0  0  0  0  0  0  0  0  0  0  0
   -7.3282   -0.1124   -0.2773 C   0  0  0  0  0  0  0  0  0  0  0  0
  -10.0611   -0.7312    3.2901 H   0  0  0  0  0  0  0  0  0  0  0  0
  -10.5060    0.6874    2.2474 H   0  0  0  0  0  0  0  0  0  0  0  0
  -10.6155    0.1499    0.2432 H   0  0  0  0  0  0  0  0  0  0  0  0
  -10.5445    0.2840   -2.2725 H   0  0  0  0  0  0  0  0  0  0  0  0
   -8.3693    0.1538   -3.3967 H   0  0  0  0  0  0  0  0  0  0  0  0
   -6.0695   -0.8607   -3.0939 H   0  0  0  0  0  0  0  0  0  0  0  0
   -3.3827    0.1263   -2.4519 H   0  0  0  0  0  0  0  0  0  0  0  0
   -2.3059    1.3163   -0.4865 H   0  0  0  0  0  0  0  0  0  0  0  0
   -3.7207    0.8680    0.5136 H   0  0  0  0  0  0  0  0  0  0  0  0
    1.7624    1.4251    2.7070 H   0  0  0  0  0  0  0  0  0  0  0  0
    2.4173   -2.3222    0.7310 H   0  0  0  0  0  0  0  0  0  0  0  0
    3.3006   -1.3575    1.9428 H   0  0  0  0  0  0  0  0  0  0  0  0
    4.1103   -1.9991   -0.9726 H   0  0  0  0  0  0  0  0  0  0  0  0
    6.2527   -1.7647   -1.3626 H   0  0  0  0  0  0  0  0  0  0  0  0
    9.0540   -1.4271   -1.6133 H   0  0  0  0  0  0  0  0  0  0  0  0
   11.4408    2.4683    0.7263 H   0  0  0  0  0  0  0  0  0  0  0  0
   10.6605    3.9512    0.1237 H   0  0  0  0  0  0  0  0  0  0  0  0
    6.4578    3.0193    2.4617 H   0  0  0  0  0  0  0  0  0  0  0  0
    6.8442   -1.9961    1.6318 H   0  0  0  0  0  0  0  0  0  0  0  0
    8.3338   -3.1706    0.4602 H   0  0  0  0  0  0  0  0  0  0  0  0
    4.7661   -3.1658    1.7465 H   0  0  0  0  0  0  0  0  0  0  0  0
    5.5071   -3.8056   -0.9461 H   0  0  0  0  0  0  0  0  0  0  0  0
   -5.2063    2.0393   -0.8790 H   0  0  0  0  0  0  0  0  0  0  0  0
   -4.0317    3.5690   -1.7560 H   0  0  0  0  0  0  0  0  0  0  0  0
   -6.5833    1.9161   -2.8418 H   0  0  0  0  0  0  0  0  0  0  0  0
   -4.8423    0.2161   -4.2779 H   0  0  0  0  0  0  0  0  0  0  0  0
   -6.3997   -0.2248    0.2642 H   0  0  0  0  0  0  0  0  0  0  0  0
  1  2  1  0
  2  3  2  0
  2  4  1  0
  4  5  2  0
  5  6  1  0
  6  7  2  0
  7  8  1  0
  8  9  1  0
  9 10  1  0
 10 11  1  0
 11 12  1  0
 12 13  1  0
 13 14  1  0
 14 15  2  0
 14 16  1  0
 14 17  1  0
 17 18  1  0
 18 19  2  0
 18 20  1  0
 18 21  1  0
 21 22  1  0
 22 23  1  0
 23 24  1  0
 24 25  1  0
 25 26  1  0
 26 27  1  0
 27 28  2  0
 28 29  1  0
 29 30  2  0
 30 31  1  0
 30 32  1  0
 32 33  2  0
 33 34  1  0
 34 35  2  0
 25 36  1  0
 36 37  1  0
 36 38  1  0
 38 39  1  0
 11 40  1  0
 40 41  1  0
 40 42  1  0
 42 43  1  0
  8 44  2  0
 44  4  1  0
 42  9  1  0
 38 23  1  0
 35 26  1  0
 35 29  1  0
  1 45  1  0
  1 46  1  0
  5 47  1  0
  6 48  1  0
  7 49  1  0
  9 50  1  6
 11 51  1  6
 12 52  1  0
 12 53  1  0
 20 54  1  0
 22 55  1  0
 22 56  1  0
 23 57  1  6
 25 58  1  6
 27 59  1  0
 31 60  1  0
 31 61  1  0
 33 62  1  0
 36 63  1  1
 37 64  1  0
 38 65  1  1
 39 66  1  0
 40 67  1  1
 41 68  1  0
 42 69  1  6
 43 70  1  0
 44 71  1  0
M  CHG  2   8   1  16  -1
M  END

##END=
##TITLE=Predicted spectrum
##JCAMP-DX=5.01
##ORIGIN=UNKNOWN
##OWNER=UNKNOWN
##DATA TYPE=NMR SPECTRUM
##BLOCK_ID=2
##CROSS REFERENCE=NMR PEAK TABLE:BLOCK_ID=3
##DATE=22/02/07
##TIME=18:18:11
##LONG DATE=2022/02/07 18:18:11 
##.OBSERVE FREQUENCY=100
##.OBSERVE NUCLEUS=1H
##.SHIFT REFERENCE=INTERNAL,nan,56172.86,0
##XUNITS=PPM
##FIRSTX=12.0
##LASTX=-2.0
##MINX=-2.0
##MAXX=12.0
##XFACTOR=0.0002099999999991553
##NPOINTS=65536
##YUNITS=ARBITRARY UNITS
##FIRSTY=1.900256e-05
##LASTY=9.06507e-06
##MINY=9.06507e-06
##MAXY=1.000591
##YFACTOR=3.0536545915097504e-05
##XYDATA=(X++(Y..Y)), XYDATA $$ DIF
57143A%%%%%%%%%%%%%%%%%%%%%%%%%%%%%%%%%%%%%%%%%%%%%%%%%%%%%%%%%%%%%%%%%%%%%%%%%%
57068A%%%%%%%%%%%%%%%%%%%%%%%%%%%%%%%%%%%%%%%%%%%%%%%%%%%%%%%%%%%%%%%%%%%%%%%%%%
56992A%%%%%%%%%%%%%%%%%%%%%%%%%%%%%%%%%%%%%%%%%%%%%%%%%%%%%%%%%%%%%%%%%%%%%%%%%%
56917A%%%%%%%%%%%%%%%%%%%%%%%%%%%%%%%%%%%%%%%%%%%%%%%%%%%%%%%%%%%%%%%%%%%%%%%%%%
56842A%%%%%%%%%%%%%%%%%%%%%%%%%%%%%%%%%%%%%%%%%%%%%%%%%%%%%%%%%%%%%%%%%%%%%%%%%%
56766A%%%%%%%%%%%%%%%%%%%%%%%%%%%%%%%%%%%%%%%%%%%%%%%%%%%%%%%%%%%%%%%%%%%%%%%%%%
56691A%%%%%%%%%%%%%%%%%%%%%%%%%%%%%%%%%%%%%%%%%%%%%%%%%%%%%%%%%%%%%%%%%%%%%%%%%%
56616A%%%%%%%%%%%%%%%%%%%%%%%%%%%%%%%%%%%%%%%%%%%%%%%%%%%%%%%%%%%%%%%%%%%%%%%%%%
56541A%%%%%%%%%%%%%%%%%%%%%%%%%%%%%%%%%%%%%%%%%%%%%%%%%%%%%%%%%%%%%%%%%%%%%%%%%%
56465A%%%%%%%%%%%%%%%%%%%%%%%%%%%%%%%%%%%%%%%%%%%%%%%%%%%%%%%%%%%%%%%%%%%%%%%%%%
56390A%%%%%%%%%%%%%%%%%%%%%%%%%%%%%%%%%%%%%%%%%%%%%%%%%%%%%%%%%%%%%%%%%%%%%%%%%%
56315A%%%%%%%%%%%%%%%%%%%%%%%%%%%%%%%%%%%%%%%%%%%%%%%%%%%%%%%%%%%%%%%%%%%%%%%%%%
56240A%%%%%%%%%%%%%%%%%%%%%%%%%%%%%%%%%%%%%%%%%%%%%%%%%%%%%%%%%%%%%%%%%%%%%%%%%%
56164A%%%%%%%%%%%%%%%%%%%%%%%%%%%%%%%%%%%%%%%%%%%%%%%%%%%%%%%%%%%%%%%%%%%%%%%%%%
56089A%%%%%%%%%%%%%%%%%%%%%%%%%%%%%%%%%%%%%%%%%%%%%%%%%%%%%%%%%%%%%%%%%%%%%%%%%%
56014A%%%%%%%%%%%%%%%%%%%%%%%%%%%%%%%%%%%%%%%%%%%%%%%%%%%%%%%%%%%%%%%%%%%%%%%%%%
55938A%%%%%%%%%%%%%%%%%%%%%%%%%%%%%%%%%%%%%%%%%%%%%%%%%%%%%%%%%%%%%%%%%%%%%%%%%%
55863A%%%%%%%%%%%%%%%%%%%%%%%%%%%%%%%%%%%%%%%%%%%%%%%%%%%%%%%%%%%%%%%%%%%%%%%%%%
55788A%%%%%%%%%%%%%%%%%%%%%%%%%%%%%%%%%%%%%%%%%%%%%%%%%%%%%%%%%%%%%%%%%%%%%%%%%%
55713A%%%%%%%%%%%%%%%%%%%%%%%%%%%%%%%%%%%%%%%%%%%%%%%%%%%%%%%%%%%%%%%%%%%%%%%%%%
55637A%%%%%%%%%%%%%%%%%%%%%%%%%%%%%%%%%%%%%%%%%%%%%%%%%%%%%%%%%%%%%%%%%%%%%%%%%%
55562A%%%%%%%%%%%%%%%%%%%%%%%%%%%%%%%%%%%%%%%%%%%%%%%%%%%%%%%%%%%%%%%%%%%%%%%%%%
55487A%%%%%%%%%%%%%%%%%%%%%%%%%%%%%%%%%%%%%%%%%%%%%%%%%%%%%%%%%%%%%%%%%%%%%%%%%%
55411A%%%%%%%%%%%%%%%%%%%%%%%%%%%%%%%%%%%%%%%%%%%%%%%%%%%%%%%%%%%%%%%%%%%%%%%%%%
55336A%%%%%%%%%%%%%%%%%%%%%%%%%%%%%%%%%%%%%%%%%%%%%%%%%%%%%%%%%%%%%%%%%%%%%%%%%%
55261A%%%%%%%%%%%%%%%%%%%%%%%%%%%%%%%%%%%%%%%%%%%%%%%%%%%%%%%%%%%%%%%%%%%%%%%%%%
55186A%%%%%%%%%%%%%%%%%%%%%%%%%%%%%%%%%%%%%%%%%%%%%%%%%%%%%%%%%%%%%%%%%%%%%%%%%%
55110A%%%%%%%%%%%%%%%%%%%%%%%%%%%%%%%%%%%%%%%%%%%%%%%%%%%%%%%%%%%%%%%%%%%%%%%%%%
55035A%%%%%%%%%%%%%%%%%%%%%%%%%%%%%%%%%%%%%%%%%%%%%%%%%%%%%%%%%%%%%%%%%%%%%%%%%%
54960A%%%%%%%%%%%%%%%%%%%%%%%%%%%%%%%%%%%%%%%%%%%%%%%%%%%%%%%%%%%%%%%%%%%%%%%%%%
54885A%%%%%%%%%%%%%%%%%%%%%%%%%%%%%%%%%%%%%%%%%%%%%%%%%%%%%%%%%%%%%%%%%%%%%%%%%%
54809A%%%%%%%%%%%%%%%%%%%%%%%%%%%%%%%%%%%%%%%%%%%%%%%%%%%%%%%%%%%%%%%%%%%%%%%%%%
54734A%%%%%%%%%%%%%%%%%%%%%%%%%%%%%%%%%%%%%%%%%%%%%%%%%%%%%%%%%%%%%%%%%%%%%%%%%%
54659A%%%%%%%%%%%%%%%%%%%%%%%%%%%%%%%%%%%%%%%%%%%%%%%%%%%%%%%%%%%%%%%%%%%%%%%%%%
54583A%%%%%%%%%%%%%%%%%%%%%%%%%%%%%%%%%%%%%%%%%%%%%%%%%%%%%%%%%%%%%%%%%%%%%%%%%%
54508A%%%%%%%%%%%%%%%%%%%%%%%%%%%%%%%%%%%%%%%%%%%%%%%%%%%%%%%%%%%%%%%%%%%%%%%%%%
54433A%%%%%%%%%%%%%%%%%%%%%%%%%%%%%%%%%%%%%%%%%%%%%%%%%%%%%%%%%%%%%%%%%%%%%%%%%%
54358A%%%%%%%%%%%%%%%%%%%%%%%%%%%%%%%%%%%%%%%%%%%%%%%%%%%%%%%%%%%%%%%%%%%%%%%%%%
54282A%%%%%%%%%%%%%%%%%%%%%%%%%%%%%%%%%%%%%%%%%%%%%%%%%%%%%%%%%%%%%%%%%%%%%%%%%%
54207A%%%%%%%%%%%%%%%%%%%%%%%%%%%%%%%%%%%%%%%%%%%%%%%%%%%%%%%%%%%%%%%%%%%%%%%%%%
54132A%%%%%%%%%%%%%%%%%%%%%%%%%%%%%%%%%%%%%%%%%%%%%%%%%%%%%%%%%%%%%%%%%%%%%%%%%%
54056A%%%%%%%%%%%%%%%%%%%%%%%%%%%%%%%%%%%%%%%%%%%%%%%%%%%%%%%%%%%%%%%%%%%%%%%%%%
53981A%%%%%%%%%%%%%%%%%%%%%%%%%%%%%%%%%%%%%%%%%%%%%%%%%%%%%%%%%%%%%%%%%%%%%%%%%%
53906A%%%%%%%%%%%%%%%%%%%%%%%%%%%%%%%%%%%%%%%%%%%%%%%%%%%%%%%%%%%%%%%%%%%%%%%%%%
53831A%%%%%%%%%%%%%%%%%%%%%%%%%%%%%%%%%%%%%%%%%%%%%%%%%%%%%%%%%%%%%%%%%%%%%%%%%%
53755A%%%%%%%%%%%%%%%%%%%%%%%%%%%%%%%%%%%%%%%%%%%%%%%%%%%%%%%%%%%%%%%%%%%%%%%%%%
53680A%%%%%%%%%%%%%%%%%%%%%%%%%%%%%%%%%%%%%%%%%%%%%%%%%%%%%%%%%%%%%%%%%%%%%%%%%%
53605A%%%%%%%%%%%%%%%%%%%%%%%%%%%%%%%%%%%%%%%%%%%%%%%%%%%%%%%%%%%%%%%%%%%%%%%%%%
53530A%%%%%%%%%%%%%%%%%%%%%%%%%%%%%%%%%%%%%%%%%%%%%%%%%%%%%%%%%%%%%%%%%%%%%%%%%%
53454A%%%%%%%%%%%%%%%%%%%%%%%%%%%%%%%%%%%%%%%%%%%%%%%%%%%%%%%%%%%%%%%%%%%%%%%%%%
53379A%%%%%%%%%%%%%%%%%%%%%%%%%%%%%%%%%%%%%%%%%%%%%%%%%%%%%%%%%%%%%%%%%%%%%%%%%%
53304A%%%%%%%%%%%%%%%%%%%%%%%%%%%%%%%%%%%%%%%%%%%%%%%%%%%%%%%%%%%%%%%%%%%%%%%%%%
53228A%%%%%%%%%%%%%%%%%%%%%%%%%%%%%%%%%%%%%%%%%%%%%%%%%%%%%%%%%%%%%%%%%%%%%%%%%%
53153A%%%%%%%%%%%%%%%%%%%%%%%%%%%%%%%%%%%%%%%%%%%%%%%%%%%%%%%%%%%%%%%%%%%%%%%%%%
53078A%%%%%%%%%%%%%%%%%%%%%%%%%%%%%%%%%%%%%%%%%%%%%%%%%%%%%%%%%%%%%%%%%%%%%%%%%%
53003A%%%%%%%%%%%%%%%%%%%%%%%%%%%%%%%%%%%%%%%%%%%%%%%%%%%%%%%%%%%%%%%%%%%%%%%%%%
52927A%%%%%%%%%%%%%%%%%%%%%%%%%%%%%%%%%%%%%%%%%%%%%%%%%%%%%%%%%%%%%%%%%%%%%%%%%%
52852A%%%%%%%%%%%%%%%%%%%%%%%%%%%%%%%%%%%%%%%%%%%%%%%%%%%%%%%%%%%%%%%%%%%%%%%%%%
52777A%%%%%%%%%%%%%%%%%%%%%%%%%%%%%%%%%%%%%%%%%%%%%%%%%%%%%%%%%%%%%%%%%%%%%%%%%%
52701A%%%%%%%%%%%%%%%%%%%%%%%%%%%%%%%%%%%%%%%%%%%%%%%%%%%%%%%%%%%%%%%%%%%%%%%%%%
52626A%%%%%%%%%%%%%%%%%%%%%%%%%%%%%%%%%%%%%%%%%%%%%%%%%%%%%%%%%%%%%%%%%%%%%%%%%%
52551A%%%%%%%%%%%%%%%%%%%%%%%%%%%%%%%%%%%%%%%%%%%%%%%%%%%%%%%%%%%%%%%%%%%%%%%%%%
52476A%%%%%%%%%%%%%%%%%%%%%%%%%%%%%%%%%%%%%%%%%%%%%%%%%%%%%%%%%%%%%%%%%%%%%%%%%%
52400A%%%%%%%%%%%%%%%%%%%%%%%%%%%%%%%%%%%%%%%%%%%%%%%%%%%%%%%%%%%%%%%%%%%%%%%%%%
52325A%%%%%%%%%%%%%%%%%%%%%%%%%%%%%%%%%%%%%%%%%%%%%%%%%%%%%%%%%%%%%%%%%%%%%%%%%%
52250A%%%%%%%%%%%%%%%%%%%%%%%%%%%%%%%%%%%%%%%%%%%%%%%%%%%%%%%%%%%%%%%%%%%%%%%%%%
52175A%%%%%%%%%%%%%%%%%%%%%%%%%%%%%%%%%%%%%%%%%%%%%%%%%%%%%%%%%%%%%%%%%%%%%%%%%%
52099A%%%%%%%%%%%%%%%%%%%%%%%%%%%%%%%%%%%%%%%%%%%%%%%%%%%%%%%%%%%%%%%%%%%%%%%%%%
52024A%%%%%%%%%%%%%%%%%%%%%%%%%%%%%%%%%%%%%%%%%%%%%%%%%%%%%%%%%%%%%%%%%%%%%%%%%%
51949A%%%%%%%%%%%%%%%%%%%%%%%%%%%%%%%%%%%%%%%%%%%%%%%%%%%%%%%%%%%%%%%%%%%%%%%%%%
51873A%%%%%%%%%%%%%%%%%%%%%%%%%%%%%%%%%%%%%%%%%%%%%%%%%%%%%%%%%%%%%%%%%%%%%%%%%%
51798A%%%%%%%%%%%%%%%%%%%%%%%%%%%%%%%%%%%%%%%%%%%%%%%%%%%%%%%%%%%%%%%%%%%%%%%%%%
51723A%%%%%%%%%%%%%%%%%%%%%%%%%%%%%%%%%%%%%%%%%%%%%%%%%%%%%%%%%%%%%%%%%%%%%%%%%%
51648A%%%%%%%%%%%%%%%%%%%%%%%%%%%%%%%%%%%%%%%%%%%%%%%%%%%%%%%%%%%%%%%%%%%%%%%%%%
51572A%%%%%%%%%%%%%%%%%%%%%%%%%%%%%%%%%%%%%%%%%%%%%%%%%%%%%%%%%%%%%%%%%%%%%%%%%%
51497A%%%%%%%%%%%%%%%%%%%%%%%%%%%%%%%%%%%%%%%%%%%%%%%%%%%%%%%%%%%%%%%%%%%%%%%%%%
51422A%%%%%%%%%%%%%%%%%%%%%%%%%%%%%%%%%%%%%%%%%%%%%%%%%%%%%%%%%%%%%%%%%%%%%%%%%%
51346A%%%%%%%%%%%%J%%%%%%%%%%%%%%%%%%%%%%%%%%%%%%%%%%%%%%%%%%%%%%%%%%%%%%%%%%%%%
51271B%%%%%%%%%%%%%%%%%%%%%%%%%%%%%%%%%%%%%%%%%%%%%%%%%%%%%%%%%%%%%%%%%%%%%%%%%%
51196B%%%%%%%%%%%%%%%%%%%%%%%%%%%%%%%%%%%%%%%%%%%%%%%%%%%%%%%%%%%%%%%%%%%%%%%%%%
51121B%%%%%%%%%%%%%%%%%%%%%%%%%%%%%%%%%%%%%%%%%%%%%%%%%%%%%%%%%%%%%%%%%%%%%%%%%%
51045B%%%%%%%%%%%%%%%%%%%%%%%%%%%%%%%%%%%%%%%%%%%%%%%%%%%%%%%%%%%%%%%%%%%%%%%%%%
50970B%%%%%%%%%%%%%%%%%%%%%%%%%%%%%%%%%%%%%%%%%%%%%%%%%%%%%%%%%%%%%%%%%%%%%%%%%%
50895B%%%%%%%%%%%%%%%%%%%%%%%%%%%%%%%%%%%%%%%%%%%%%%%%%%%%%%%%%%%%%%%%%%%%%%%%%%
50820B%%%%%%%%%%%%%%%%%%%%%%%%%%%%%%%%%%%%%%%%%%%%%%%%%%%%%%%%%%%%%%%%%%%%%%%%%%
50744B%%%%%%%%%%%%%%%%%%%%%%%%%%%%%%%%%%%%%%%%%%%%%%%%%%%%%%%%%%%%%%%%%%%%%%%%%%
50669B%%%%%%%%%%%%%%%%%%%%%%%%%%%%%%%%%%%%%%%%%%%%%%%%%%%%%%%%%%%%%%%%%%%%%%%%%%
50594B%%%%%%%%%%%%%%%%%%%%%%%%%%%%%%%%%%%%%%%%%%%%%%%%%%%%%%%%%%%%%%%%%%%%%%%%%%
50518B%%%%%%%%%%%%%%%%%%%%%%%%%%%%%%%%%%%%%%%%%%%%%%%%%%%%%%%%%%%%%%%%%%%%%%%%%%
50443B%%%%%%%%%%%%%%%%%%%%%%%%%%%%%%%%%%%%%%%%%%%%%%%%%%%%%%%%%%%%%%%%%%%%%%%%%%
50368B%%%%%%%%%%%%%%%%%%%%%%%%%%%%%%%%%%%%%%%%%%%%%%%%%%%%%%%%%%%%%%%%%%%%%%%%%%
50293B%%%%%%%%%%%%%%%%%%%%%%%%%%%%%%%%%%%%%%%%%%%%%%%%%%%%%%%%%%%%%%%%%%%%%%%%%%
50217B%%%%%%%%%%%%%%%%%%%%%%%%%%%%%%%%%%%%%%%%%%%%%%%%%%%%%%%%%%%%%%%%%%%%%%%%%%
50142B%%%%%%%%%%%%%%%%%%%%%%%%%%%%%%%%%%%%%%%%%%%%%%%%%%%%%%%%%%%%%%%%%%%%%%%%%%
50067B%%%%%%%%%%%%%%%%%%%%%%%%%%%%%%%%%%%%%%%%%%%%%%%%%%%%%%%%%%%%%%%%%%%%%%%%%%
49991B%%%%%%%%%%%%%%%%%%%%%%%%%%%%%%%%%%%%%%%%%%%%%%%%%%%%%%%%%%%%%%%%%%%%%%%%%%
49916B%%%%%%%%%%%%%%%%%%%%%%%%%%%%%%%%%%%%%%%%%%%%%%%%%%%%%%%%%%%%%%%%%%%%%%%%%%
49841B%%%%%%%%%%%%%%%%%%%%%%%%%%%%%%%%%%%%%%%%%%%%%%%%%%%%%%%%%%%%%%%%%%%%%%%%%%
49766B%%%%%%%%%%%%%%%%%%%%%%%%%%%%%%%%%%%%%%%%%%%%%%%%%%%%%%%%%%%%%%%%%%%%%%%%%%
49690B%%%%%%%%%%%%%%%%%%%%%%%%%%%%%%%%%%%%%%%%%%%%%%%%%%%%%%%%%%%%%%%%%%%%%%%%%%
49615B%%%%%%%%%%%%%%%%%%%%%%%%%%%%%%%%%%%%%%%%%%%%%%%%%%%%%%%%%%%%%%%%%%%%%%%%%%
49540B%%%%%%%%%%%%%%%%%%%%%%%%%%%%%%%%%%%%%%%%%%%%%%%%%%%%%%%%%%%%%%%%%%%%%%%%%%
49465B%%%%%%%%%%%%%%%%%%%%%%%%%%%%%%%%%%%%%%%%%%%%%%%%%%%%%%%%%%%%%%%%%%%%%%%%%%
49389B%%%%%%%%%%%%%%%%%%%%%%%%%%%%%%%%%%%%%J%%%%%%%%%%%%%%%%%%%%%%%%%%%%%%%%%%%%
49314C%%%%%%%%%%%%%%%%%%%%%%%%%%%%%%%%%%%%%%%%%%%%%%%%%%%%%%%%%%%%%%%%%%%%%%%%%%
49239C%%%%%%%%%%%%%%%%%%%%%%%%%%%%%%%%%%%%%%%%%%%%%%%%%%%%%%%%%%%%%%%%%%%%%%%%%%
49163C%%%%%%%%%%%%%%%%%%%%%%%%%%%%%%%%%%%%%%%%%%%%%%%%%%%%%%%%%%%%%%%%%%%%%%%%%%
49088C%%%%%%%%%%%%%%%%%%%%%%%%%%%%%%%%%%%%%%%%%%%%%%%%%%%%%%%%%%%%%%%%%%%%%%%%%%
49013C%%%%%%%%%%%%%%%%%%%%%%%%%%%%%%%%%%%%%%%%%%%%%%%%%%%%%%%%%%%%%%%%%%%%%%%%%%
48938C%%%%%%%%%%%%%%%%%%%%%%%%%%%%%%%%%%%%%%%%%%%%%%%%%%%%%%%%%%%%%%%%%%%%%%%%%%
48862C%%%%%%%%%%%%%%%%%%%%%%%%%%%%%%%%%%%%%%%%%%%%%%%%%%%%%%%%%%%%%%%%%%%%%%%%%%
48787C%%%%%%%%%%%%%%%%%%%%%%%%%%%%%%%%%%%%%%%%%%%%%%%%%%%%%%%%%%%%%%%%%%%%%%%%%%
48712C%%%%%%%%%%%%%%%%%%%%%%%%%%%%%%%%%%%%%%%%%%%%%%%%%%%%%%%%%%%%%%%%%%%%%%%%%%
48636C%%%%%%%%%%%%%%%%%%%%%%%%%%%%%%%%%%%%%%%%%%%%%%%%%%%%%%%%%%%%%%%%%%%%%%%%%%
48561C%%%%%%%%%%%%%%%%%%%%%%%%%%%%%%%%%%%%%%%%%%%%%%%%%%%%%%%%%%%%%%%%%%%%%%%%%%
48486C%%%%%%%%%%%%%%%%%%%%%%%%%%%%%%%%%%%%%%%%%%%%%%%%%%%%%%%%%%%%%%%%%%%%%%%%%%
48411C%%%%J%%%%%%%%%%%%%%%%%%%%%%%%%%%%%%%%%%%%%%%%%%%%%%%%%%%%%%%%%%%%%%%%%%%%%
48335D%%%%%%%%%%%%%%%%%%%%%%%%%%%%%%%%%%%%%%%%%%%%%%%%%%%%%%%%%%%%%%%%%%%%%%%%%%
48260D%%%%%%%%%%%%%%%%%%%%%%%%%%%%%%%%%%%%%%%%%%%%%%%%%%%%%%%%%%%%%%%%%%%%%%%%%%
48185D%%%%%%%%%%%%%%%%%%%%%%%%%%%%%%%%%%%%%%%%%%%%%%%%%%%%%%%%%%%%%%%%%%%%%%%%%%
48110D%%%%%%%%%%%%%%%%%%%%%%%%%%%%%%%%%%%%%%%%%%%%%%%%%%%%%%%%%%%%%%%%%%%%%%%%%%
48034D%%%%%%%%%%%%%%%%%%%%%%%%%%%%%%%%%%%%%%%%%%%%%%%%%%%%%%%%%%%%%%%%%%%%%%%%%%
47959D%%%%%%%%%%%%%%%%%%%%%%%%%%%%%%%%%%%%%%%%%%%%%%%%%%%%%%%%%%%%%%%%%%%%%%%%%%
47884D%%%%%%%%%%%%%%%%%%%%%%%%%%%%%%%%%%%%%%%%%%%%J%%%%%%%%%%%%%%%%%%%%%%%%%%%%%
47808E%%%%%%%%%%%%%%%%%%%%%%%%%%%%%%%%%%%%%%%%%%%%%%%%%%%%%%%%%%%%%%%%%%%%%%%%%%
47733E%%%%%%%%%%%%%%%%%%%%%%%%%%%%%%%%%%%%%%%%%%%%%%%%%%%%%%%%%%%%%%%%%%%%%%%%%%
47658E%%%%%%%%%%%%%%%%%%%%%%%%%%%%%%%%%%%%%%%%%%%%%%%%%%%%%%%%%%%%%%%%%%%%%%%%%%
47583E%%%%%%%%%%%%%%%%%%%%%%%%%%%%%%%%%%%%%%%%%%%%%%%%%%%%%%%%%%%%%%%%%%%%%%%%%%
47507E%%%%%%%%%%%%%%%%%%%%%%%%%%%%%%%%%%%%%%%%%%%%%%%%%%%%J%%%%%%%%%%%%%%%%%%%%%
47432F%%%%%%%%%%%%%%%%%%%%%%%%%%%%%%%%%%%%%%%%%%%%%%%%%%%%%%%%%%%%%%%%%%%%%%%%%%
47357F%%%%%%%%%%%%%%%%%%%%%%%%%%%%%%%%%%%%%%%%%%%%%%%%%%%%%%%%%%%%%%%%%%%%%%%%%%
47281F%%%%%%%%%%%%%%%%%%%%%%%%%%%%%%%%%%%%%%%%%%%%%%%%%%%%%%%%%%%%%%%%%%%%%%%%%%
47206F%%%%%%%%%%%%%%%%%%%%%%%%%%%%%%%%%J%%%%%%%%%%%%%%%%%%%%%%%%%%%%%%%%%%%%%%%%
47131G%%%%%%%%%%%%%%%%%%%%%%%%%%%%%%%%%%%%%%%%%%%%%%%%%%%%%%%%%%%%%%%%%%%%%%%%%%
47056G%%%%%%%%%%%%%%%%%%%%%%%%%%%%%%%%%%%%%%%%%%%%%%%%%%%%%%%%%%%%%%%%%%%%%%%%%%
46980G%%%%%%%%%%%%%%%%%%%%%%%%J%%%%%%%%%%%%%%%%%%%%%%%%%%%%%%%%%%%%%%%%%%%%%%%%%
46905H%%%%%%%%%%%%%%%%%%%%%%%%%%%%%%%%%%%%%%%%%%%%%%%%%%%%%%%%%%%%%%%%%%%%%%%%%%
46830H%%%%%%%%%%%%%%%%%%%%%%%%%%%%%%%%%%%%%%%%%%%%%J%%%%%%%%%%%%%%%%%%%%%%%%%%%%
46755I%%%%%%%%%%%%%%%%%%%%%%%%%%%%%%%%%%%%%%%%%%%%%%%%%%%%%%%%%%%%%%%%%%%%%%%%%%
46679I%%%%%%%%%%%%%%%%%%%%%%%%%%%%%%%%%%%%%J%%%%%%%%%%%%%%%%%%%%%%%%%%%%%%%%%%%%
46604A0%%%%%%%%%%%%%%%%%%%%%%%%%%%%%%%%%%%%%%%%%%%%%%%%%%%%%%%%%%%%%%%%%%%%%%%%%
46530A0%%%%%%%J%%%%%%%%%%%%%%%%%%%%%%%%%%%%%%%%%%%%%%%%%%%%%%%%%%%%%%%%%%%%%%%%%
46455A1%%%%%%%%%%%%%%%%%%%%%%%%%%%%%%%%%%J%%%%%%%%%%%%%%%%%%%%%%%%%%%%%%%%%%%%%%
46381A2%%%%%%%%%%%%%%%%%%%%%%%%%%%%%%%%%%%%%%%%%%%%%%%J%%%%%%%%%%%%%%%%%%%%%%%%%
46307A3%%%%%%%%%%%%%%%%%%%%%%%%%%%%%%%%%%%%%%%%%%%%%%%%%%J%%%%%%%%%%%%%%%%%%%%%%
46233A4%%%%%%%%%%%%%%%%%%%%%%%%%%%%%%%%%%%%%%%%%%%%%J%%%%%%%%%%%%%%%%%%%%%%%%%%%
46158A5%%%%%%%%%%%%%%%%%%%%%%%%%%%%%%%%J%%%%%%%%%%%%%%%%%%%%%%%%%%%%%%%%%%%%%%%%
46084A6%%%%%%%%%%%%%J%%%%%%%%%%%%%%%%%%%%%%%%%%%%%%%%%%%%%%%%%%%%%%%%J%%%%%%%%%%
46010A8%%%%%%%%%%%%%%%%%%%%%%%%%%%%%%%%%%J%%%%%%%%%%%%%%%%%%%%%%%%%%%%%%%%%%%%%%
45936A9%%J%%%%%%%%%%%%%%%%%%%%%%%%%%%%%%%%%%%%%J%%%%%%%%%%%%%%%%%%%%%%%%%%%%%%%%
45861B1%J%%%%%%%%%%%%%%%%%%%%%%%%%%%%%%%%J%%%%%%%%%%%%%%%%%%%%%%%%%%%%%J%%%%%%%%
45787B4%%%%%%%%%%%%%%%%%%%J%%%%%%%%%%%%%%%%%%%%%%%%%%J%%%%%%%%%%%%%%%%%%%%%%%%J%
45713B7%%%%%%%%%%%%%%%%%%%%%J%%%%%%%%%%%%%%%%%%%%%J%%%%%%%%%%%%%%%%%%%%J%%%%%%%%
45639C0%%%%%%%%%%%J%%%%%%%%%%%%%%%%%%J%%%%%%%%%%%%%%%%J%%%%%%%%%%%%%%%%J%%%%%%%%
45564C4%%%%%%%%J%%%%%%%%%%%%%%J%%%%%%%%%%%%%%J%%%%%%%%%%%%%J%%%%%%%%%%%%%J%%%%%%
45490C9%%%%%%J%%%%%%%%%%%%J%%%%%%%%%%%J%%%%%%%%%%J%%%%%%%%%%%J%%%%%%%%%J%%%%%%%%
45416D5%%J%%%%%%%%%J%%%%%%%%%J%%%%%%%%J%%%%%%%%J%%%%%%%%J%%%%%%%%J%%%%%%%J%%%%%%
45342E3%J%%%%%%%J%%%%%%%J%%%%%%J%%%%%%J%%%%%%J%%%%%%J%%%%%%J%%%%%J%%%%%%J%%%%%J%
45267F4%%%%J%%%%%J%%%%J%%%%%J%%%%J%%%%%J%%%%J%%%%J%%%%J%%%%J%%%%J%%%%J%%%J%%%%J%
45193G8%%J%%%J%%%%J%%%J%%%J%%%J%%%J%%%J%%%J%%J%%%J%%%J%%J%%%J%%J%%J%%%J%%J%%J%%J
45119I8%%J%%J%%J%%J%%J%%J%%J%%J%%J%J%%J%%J%J%%J%J%%J%J%%J%J%J%%J%J%J%J%%J%J%J%J%
45044A26J%J%J%J%J%J%J%J%J%J%J%JJ%J%J%JJ%J%J%JJ%JJ%J%JJ%JJ%JJ%JJ%JJ%JJ%JJJ%JJJ%JJ
44971A70J%JJJ%JJJJJ%JJJJJ%JJJJJJJJJ%JJJJJJJJJJJJJJJJJJKJJJJJJJKJJJJJKJJJKJJJKJJK
44898B43JJKJKJJKJKJKJKJKJKJKKJKJKKKJKKKJKKKKJKKKKKKKKKKKLKKKKLKKKLKKLKLKLKLLKLLK
44825C81LLLLKLLLLLMLLLLMLLMLMLMMMLMMMMMMMMNMMNMNMNNNNNNNNNONONOOOOOOOPOPPOPQPPQP
44752G14QQQQQRQRRRJ0RJ0J0J0J0J1J0J1J2J1J2J2J2J2J3J3J3J4J4J4J5J5J5J6J6J6J7J7J8J8
44710A204J9J9K0K0K1K1K2K3K3K4K5K5K6K7K8K9K9L1L1L3L3L5L6L7L8M0M1M3M4M6M8N0N1N3N6
44674B351N8O0O3O5O8P1P4P7Q1Q4Q8R2R7J00J06J10J16J21J27J33J39J46J53J60J67J75J83J91
44646E456J99K06K15K23K30K38K43K49K54K57K58K58K55K51K43K33K19K04J84J63J39J13Q6N8
44621A0434L0Kk5n0p3r3j10j25j36j44j49j53j52j50j46j40j33j24j14j04r4q1o9n7m5l1j9nQ
44592G952K1L4M8O2P6Q9J03J18J32J46J61J76J91K05K21K35K50K64K78K92L03L15L25L34L41
44566A2672L45L48L47L45L40L32L21L08K94K76K60K41K22K05J87J72J58J45J34J24J16J08J01
44543A8101R3Q7P7O9N8M7L4K0Pqk2l6m7n9o7p5q0q5q6q9q9r1r1r4r8j02j10j19j30j44j59j75
44510A6537j93k11k28k44k60k74k84k93l00l03l03l02k97k91k83k73k62k49k36k22k06j92j76
44487A0655j60j45j28j13r6q1o5n0l3j8lJ4K8M5O1P6R2J08J23J40J55J72J87K02K17K31K46K58
44459A2118K70K80K89K95L01L03L04L00K96K87K77K64K50K33K16J98J80J64J48J35J22J12J04
44435A7446R9R5R2R1Q9Q9Q8Q5Q2P6P0O1N1M0K6J2kj6l0m3n5o6p5q4r1r9j06j13j22j31j41j54
44403A7264j67j83k00k17k35k54k71k89l04l18l28l38l44l47l48l46l42l36l28l18l07k95k83
44379A0566k68k54k40k25k10j95j80j66j51j36j22j07r4q0o5n2l9k5j2KJ4K8M0N4O5P8R0J01
44351H417J11J21J31J38J44J49J52J52J51J46J39J28J15R9P9N6L3Ok1m9p8j05j31j56j78j99
44324I550k15k29k40k48k55k57k58k58k55k50k46k39k32k25k18k09k01j93j85j78j69j62j55
44301D473j48j41j35j29j23j17j12j07j02r8r3q9q6q2p8p5p2o9o6o3o1n8n7n4n2n0m8m7m4m4m1
44269A932m0l9l8l6l5l4l3l2l0l0k9k8k7k7k5k5k4k4k2k3k1k1k1j9k0j9j8j8j7j7j7j6j6j5j5
44234A061j5j4j4j4j4j3j3j2j2j2j2j2j1j1j1j0j1j0j0rj0rj0rqrrqqqqqqpqpppppopopooooon
44183E98oononnnnnnnnnmnmnmnmmmmmmmmmmlmmlmlmlmlllmllllllllllklllkllklklklklkklkk
44110C38klkkkkkkkkkkkkkkkkkkkjkkkjkkkjkkjkjkkjkjkjkjkjjkjkjjkjjkjjkjjjkjjjkjjjjj
44036B22kjjjjjjjjjjkjjjjjjjjjjj%jjjjjjjjjj%jjjjjj%jjjjj%jjj%jjj%jjj%jjj%jj%jjj%j
43963A58j%jj%j%jj%jj%j%jj%j%jj%j%j%jj%j%j%j%j%jj%j%j%j%j%j%j%j%%j%j%j%j%j%%j%j%j
43890A19%j%%j%j%%j%j%%j%j%%j%j%%j%%j%j%%j%%j%%j%%j%%j%%j%%j%%j%%j%%j%%j%%%j%%j%%
43817I4j%%%j%%j%%%j%%%j%%j%%%j%%%j%%%j%%%j%%%j%%%j%%%j%%%%j%%%j%%%%j%%%j%%%%j%%%
43742G6%j%%%%j%%%%j%%%%j%%%%j%%%%j%%%%%j%%%%%j%%%%j%%%%%j%%%%%j%%%%%j%%%%%%j%%%%
43668F3%j%%%%%%j%%%%%%j%%%%%%j%%%%%%j%%%%%%%j%%%%%%%j%%%%%%j%%%%%%%%j%%%%%%%j%%%
43594E3%%%%%j%%%%%%%%j%%%%%%%%j%%%%%%%%%j%%%%%%%%%j%%%%%%%%%j%%%%%%%%%%j%%%%%%%%
43520D6%%j%%%%%%%%%%%j%%%%%%%%%%%j%%%%%%%%%%%j%%%%%%%%%%%%j%%%%%%%%%%%%%j%%%%%%%
43445D0%%%%%%j%%%%%%%%%%%%%%j%%%%%%%%%%%%%%%j%%%%%%%%%%%%%%%j%%%%%%%%%%%%%%%%j%%
43371C5%%%%%%%%%%%%%%%%j%%%%%%%%%%%%%%%%%%j%%%%%%%%%%%%%%%%%%%j%%%%%%%%%%%%%%%%%
43297C2%%%%j%%%%%%%%%%%%%%%%%%%%%%j%%%%%%%%%%%%%%%%%%%%%%%%j%%%%%%%%%%%%%%%%%%%%
43223B9%%%%%j%%%%%%%%%%%%%%%%%%%%%%%%%%%%j%%%%%%%%%%%%%%%%%%%%%%%%%%%%%%j%%%%%%%
43148B6%%%%%%%%%%%%%%%%%%%%%%%%%j%%%%%%%%%%%%%%%%%%%%%%%%%%%%%%%%%%%%j%%%%%%%%%%
43074B4%%%%%%%%%%%%%%%%%%%%%%%%%%%%%%j%%%%%%%%%%%%%%%%%%%%%%%%%%%%%%%%%%%%%%%%%%
43000B3%%j%%%%%%%%%%%%%%%%%%%%%%%%%%%%%%%%%%%%%%%%%%%%%%%%%%%j%%%%%%%%%%%%%%%%%%
42926B1%%%%%%%%%%%%%%%%%%%%%%%%%%%%%%%%%%%%%%%%j%%%%%%%%%%%%%%%%%%%%%%%%%%%%%%%%
42851B0%%%%%%%%%%%%%%%%%%%%%%%%%%%%%%%%%%%%%j%%%%%%%%%%%%%%%%%%%%%%%%%%%%%%%%%%%
42777A9%%%%%%%%%%%%%%%%%%%%%%%%%%%%%%%%%%%%%%%%%%%%%%%%%%%j%%%%%%%%%%%%%%%%%%%%%
42703A8%%%%%%%%%%%%%%%%%%%%%%%%%%%%%%%%%%%%%%%%%%%%%%%%%%%%%%%%%%%%%%%%%%%%%%%%%
42628A8%%%%%%%%%%%%%%%%%%%%%%%%j%%%%%%%%%%%%%%%%%%%%%%%%%%%%%%%%%%%%%%%%%%%%%%%%
42554A7%%%%%%%%%%%%%%%%%%%%%%%%%%%%%%%%%%%%%%%%%%%%%%%%%%%%%%%%%%%%%%%%%%%%%%%%%
42480A7%%%%%%%%%%%%%%%%%%%%%%%%%%%%%%%%%%%%%%%%%%%%%%%%%%%%%%%%%%%%%%%%%%%%%%%%%
42406A7%%%%%%%%%%%%%%%%%%%%%%%%%%%%%%%%%%%%%%%%%%%%%%%%%%%%%%%%%j%%%%%%%%%%%%%%%
42331A6%%%%%%%%%%%%%%%%%%%%%%%%%%%%%%%%%%%%%%%%%%%%%%%%%%%%%%%%%%%%%%%%%%%%%%%%%
42257A6%%%%%%%%%%%%%%%%%%%%%%%%%%%%%%J%%%%%%%%%%%%%%%%%%%%%%%%%%%%%%%%%%%%%%%%%%
42183A7%%%%%%%%%%%%%%%%%%%%%%%%%%%%%%%%%%%%%%%%%%%%%%%%%%%%%%%%%%%%%%%%%%%%%%%%%
42109A7%%%%%%%%%%%%%%%%%%%%%%%%%%%%%%%%%%%%%%%%%%%%%%%%%%%%%%%%%%%%%%%%%%%%%%%%%
42034A7%%%%%%%%%%%%%%%%%%%%%%%%%%%%%%%%%%%%%%%%%%%%%%%%%%%%%%%%%%J%%%%%%%%%%%%%%
41960A8%%%%%%%%%%%%%%%%%%%%%%%%%%%%%%%%%%%%%%%%%%%%%%%%%%%%%%%%%%%%%%%%%%%%%%%%%
41886A8%%%%%%%%%%%%%%%%%%%%%%%%%%J%%%%%%%%%%%%%%%%%%%%%%%%%%%%%%%%%%%%%%%%%%%%%%
41812A9%%%%%%%%%%%%%%%%%%%%%%%%%%%%%%%%%%%J%%%%%%%%%%%%%%%%%%%%%%%%%%%%%%%%%%%%%
41737B0%%%%%%%%%%%%%%%%%%%%%%%%%%%%%J%%%%%%%%%%%%%%%%%%%%%%%%%%%%%%%%%%%%%%%%%%%
41663B1%%%%%%%%%%%J%%%%%%%%%%%%%%%%%%%%%%%%%%%%%%%%%%%%%%%%%%%%%%%J%%%%%%%%%%%%%
41589B3%%%%%%%%%%%%%%%%%%%%%%%%%%%J%%%%%%%%%%%%%%%%%%%%%%%%%%%%%%%%%%%%J%%%%%%%%
41515B5%%%%%%%%%%%%%%%%%%%%%%%%%J%%%%%%%%%%%%%%%%%%%%%%%%%%%%%J%%%%%%%%%%%%%%%%%
41440B7%%%%%%%%%%J%%%%%%%%%%%%%%%%%%%%%%%%J%%%%%%%%%%%%%%%%%%%%%%%J%%%%%%%%%%%%%
41366C0%%%%%%%%J%%%%%%%%%%%%%%%%%%%J%%%%%%%%%%%%%%%%%%J%%%%%%%%%%%%%%%%%J%%%%%%%
41292C4%%%%%%%%J%%%%%%%%%%%%%%%J%%%%%%%%%%%%%%J%%%%%%%%%%%%%J%%%%%%%%%%%%%J%%%%%
41218C9%%%%%%%J%%%%%%%%%%%J%%%%%%%%%%J%%%%%%%%%%J%%%%%%%%%%J%%%%%%%%%J%%%%%%%%%J
41143D6%%%%%%%%J%%%%%%%%J%%%%%%%%J%%%%%%%J%%%%%%%J%%%%%%%J%%%%%%%J%%%%%%J%%%%%%J
41069E5%%%%%%J%%%%%J%%%%%J%%%%%%J%%%%%J%%%%J%%%%%J%%%%%J%%%%J%%%%J%%%%J%%%%J%%%%
40995F7J%%%%J%%%J%%%%J%%%J%%%J%%%J%%%%J%%J%%%J%%%J%%%J%%%J%%J%%%J%%J%%J%%%J%%J%%
40920H6J%%J%%J%%J%%J%%J%%J%J%%J%%J%%J%J%%J%J%%J%J%J%%J%J%J%%J%J%J%J%J%J%J%J%J%J%
40846A16J%J%J%J%JJ%J%J%JJ%J%JJ%J%JJ%JJ%JJ%JJ%JJ%JJ%JJJ%JJJ%JJJJ%JJJJ%JJJJJJJ%JJJ
40773A66JJJJJJJJJJJJJJJJJJJJJKJJJJJJKJJJKJJJKJJKJJKJJKJKJKJKJKJKJKKJKKJKKJKKKKJK
40700B61KKKKKKKKKKKKKLKKKLKKLKKLKLKLLKLLKLLLLLLLLLLLLMLLMLMLMLMMLMMMMMMNMMMNMNNM
40626D78NNNNNNNONNOOONOOPOOPOPPPPPPPQQPQQRQRQRRRJ0RJ0J0J0J1J0J1J1J1J1J2J2J2J2J3
40570I20J3J3J3J4J4J5J4J5J5J6J6J6J7J7J8J8J8J9J9K0K0K1K1K2K2K3K3K4K5K5K6K7K7K8K9L0
40533A633L0L2L2L3L4L5L6L7L8M0M0M2M3M5M6M7M9N0N2N4N5N8N9O2O3O6O8P0P3P6P9Q1Q4Q8R1
40497C521R5R8J02J06J11J15J20J25J30J35J42J48J54J61J68J76J84J93K01K12K21K32K43K55
40473G348K68K81K96L10L26L42L61L79L98M19M41M63M87N12N38N65N92O21O51O80P10P39P69
40449A8496P97Q24Q48Q70Q87R00R08R08R00Q83Q56Q19P70P08O36N52M57L54K42J26Qj12k29l40
40425C2068m45n41o26p01p62q14q52q81q98r08r07r02q89q72q51q27q00p72p44p13o84o54o24
40402A4401n96n68n41n16m90m66m43m22m00l82l62l45l28l12k97k83k69k57k44k34k22k13k02
40378F009j94j85j77j69j62j55j49j42j36j31j25j21j15j11j07j03r8r5r2q8q5q1p9p6p4p0o9
40351B820o6o3o2o0n7n6n4n2n1m9m7m6m5m3m2m1l9l9l7l6l5l4l4l2l1l1k9k9k9k7k7k6k5k5k4
40315A397k3k3k3k1k2k0k1j9k0j8j9j8j7j7j7j7j6j5j6j5j4j5j4j4j3j3j3j3j2j2j2j2j1j1j1
40280H30j1j1j0j0j0j0rj0rrrqrqrqqqpqppqpopppoopoooonoonnonnnnnnnmnnmmnmmmnmmmlmmm
40213D11lmmlmllmlllmlllllllklllkllklklklklkklkkkklkkkkkkkkkkkkkjkkkkjkkjkkjkkjkj
40140B38kjkjkjkjkjjkjjkjjkjjjkjjjjkjjjjjjjkjjjjjjjjjjjjjjjjjj%jjjjjjj%jjjjj%jjj%
40067A59jjjj%jj%jjj%jj%jj%jj%jj%jj%j%jj%j%jj%j%j%j%jj%j%j%j%j%j%j%j%j%%j%j%j%j%j
39994A16%%j%j%j%%j%j%%j%%j%j%%j%%j%j%%j%%j%%j%%j%%j%%j%%%j%%j%%j%%%j%%j%%%j%%%j%
39921I2%%j%%%j%%%j%%%j%%%j%%%%j%%%j%%%%j%%%%j%%%%j%%%%j%%%%j%%%%%j%%%%%j%%%%%j%%
39846G7%%%j%%%%%%j%%%%%%j%%%%%%j%%%%%%%j%%%%%%%j%%%%%%%j%%%%%%%%j%%%%%%%%%j%%%%%
39772F8%%%%%j%%%%%%%%%%j%%%%%%%%%%%%j%%%%%%%%%%%%%%j%%%%%%%%%%%%%%%%j%%%%%%%%%%%
39698F3%%%%%%%%j%%%%%%%%%%%%%%%%%%%%%%%%%%%%j%%%%%%%%%%%%%%%%%%%%%%%%%%%%%%%%%%%
39623F1%%%%%%%%%%%%%%%%%%%%%%%%%%%%%%%%%%%%%%%%%%%%%%%%%%%%%%%%%%%%%%%%%%%%%%%%%
39549F1%%%%J%%%%%%%%%%%%%%%%%%%%%%%%%%%%J%%%%%%%%%%%%%%%%%%%%J%%%%%%%%%%%%%%%%J%
39475F5%%%%%%%%%%%%%J%%%%%%%%%%%%J%%%%%%%%%%%J%%%%%%%%%J%%%%%%%%%J%%%%%%%%%J%%%%
39401G1%%%%J%%%%%%%J%%%%%%%J%%%%%%J%%%%%%J%%%%%%J%%%%%J%%%%%%J%%%%%J%%%%J%%%%%J%
39326H2%%%J%%%%J%%%%J%%%%J%%%%J%%%J%%%%J%%%J%%%J%%%J%%%J%%%J%%%J%%%J%%J%%%J%%J%%
39252I9J%%%J%%J%%J%%J%%J%%J%%J%%J%J%%J%%J%J%%J%J%%J%J%%J%J%J%%J%J%J%J%J%J%%J%J%J
39178A28%JJ%J%J%J%J%J%JJ%J%JJ%J%JJ%JJ%J%JJ%JJ%JJJ%JJ%JJJ%JJJ%JJJJ%JJJJJ%JJJJJJJJ
39105A78%JJJJJJJJJJJJJJJJKJJJJJJJKJJJJKJJJKJJJKJJKJKJJKJKJKJKJKKJKJKKJKKKJKKKKJK
39031B73KKKKKKKKKKLKKKKLKKLKKLKLKLKLLKLLLLKLLLLLLMLLLMLLMLMLMMMLMMMMMMNMMNMNMNNM
38958D94NNNNONNONOONOOOPOOPOPPPPPQPQQPQRQQRRRRRJ0RJ0J0J1J0J1J1J1J1J1J2J2J3J2J3J3
38901I49J3J4J4J4J4J5J5J6J6J6J7J7J7J8J8J9J9J9K0K1K1K1K2K3K3K4K4K5K6K6K7K8K9K9L0L1
38865A690L2L3L4L4L6L7L8L8M1M1M3M3M6M7M8N0N1N3N5N7N8O1O3O4O8O9P2P5P7Q0Q4Q6R0R3R7
38829C684J01J04J09J14J18J22J29J33J39J46J51J59J65J74J81J89J98K08K17K28K39K50K63
38806G521K77K89L05L20L36L54L71L91M12M32M55M78N02N28N55N82O10O40O68O99P29P58P86
38782A8998Q14Q39Q63Q81Q96R05R09R04Q90Q68Q34P90P33O64N85M94L93K85J70N2o7j86k99m06
38758C1809n06n96o74p41p96q39q71q93r05r08r05q94q79q60q36q10p83p54p25o95o65o36o06
38734A4032n79n51n24n00m75m52m29m09l88l69l52l34l18l02k88k75k61k49k38k26k16k06j97
38711E894j89j80j72j64j58j51j44j39j33j27j22j18j12j09j04j00r6r3q9q6q3q0p7p5p1o9o7
38684B786o5o2o1n8n6n5n3n1n0m8m6m5m4m3m1m0l8l8l7l5l5l3l3l2l1l0k9k8k8k7k6k6k5k4k4
38648A389k3k2k2k2k1k0k0k0j9j8j8j8j7j7j7j6j6j5j5j5j5j4j4j3j3j3j3j3j2j2j2j1j1j1j1
38612H30j1j0j0j1rj0rj0rrqrrqqqqqpqppppppopoopooonoononnnonmnnnmnnmmnmmmmmmmmmmlm
38545D12lmmllmlllmllllllllklllklkllklkklklkkklkkkkkkkkkkkkkkkkkkjkkkjkkjkkjkjkjk
38472B42jkjkjkjjkjkjjkjjjkjjjkjjjjjkjjjjjjjjjjjjjjjjjjjjjjjjjjj%jjjjjj%jjjj%jjj%
38399A65jjj%jjj%jj%jj%jj%jj%jj%j%jj%j%jj%j%j%jj%j%j%j%j%j%j%j%j%j%j%j%%j%j%j%j%%
38325A24j%j%%j%j%%j%j%%j%%j%%j%j%%j%%j%%j%%j%%%j%%j%%j%%%j%%j%%%j%%j%%%j%%%j%%%j
38252A00%%%j%%%%j%%%j%%%%j%%%j%%%%j%%%%%j%%%%j%%%%%j%%%%j%%%%%%j%%%%%j%%%%%%j%%%
38179H7%%%%j%%%%%%j%%%%%%%%j%%%%%%%%j%%%%%%%%%j%%%%%%%%%%%j%%%%%%%%%%%%j%%%%%%%%
38105H0%%%%%%%%j%%%%%%%%%%%%%%%%%%%%%%j%%%%%%%%%%%%%%%%%%%%%%%%%%%%%%%%%%%%%%%%%
38030G8%%%%%%%%%%%%%%%%%%%%%%%%%%%%%%%%%%%%J%%%%%%%%%%%%%%%%%%%%%J%%%%%%%%%%%%%%
37956H0%J%%%%%%%%%%%%J%%%%%%%%%%J%%%%%%%%%J%%%%%%%%J%%%%%%%J%%%%%%%J%%%%%%J%%%%%
37882H8J%%%%%J%%%%%J%%%%%J%%%%J%%%%J%%%%J%%%J%%%%J%%%J%%%J%%%J%%%J%%J%%%J%%J%%%J
37808A05%%J%%J%%J%%J%%J%%J%%J%J%%J%%J%J%%J%J%J%%J%J%J%J%J%J%J%J%J%J%J%J%J%JJ%J%J
37734A36J%J%JJ%JJ%JJ%JJ%JJJ%JJJ%JJJJ%JJJJJJ%JJJJJJJJJJJJJJJJJJJKJJJJJKJJJKJJKJJK
37661B03JKJJKJKKJKJKKJKKKJKKKKKKKKKKKKKLKKLKKLKLKLLLKLLLLLLLLMLLMMLMMLMMMNMMNMNM
37588C91NNNNONONOOOOPOPPPPQPQQQRQRJ0RJ0J0J0J1J1J1J2J2J3J2J4J3J4J5J5J6J6J7J7J8J9
37538H68J9K0K1K2K3K3K4K6K6K8K8L0L1L3L4L5L7L9M1M2M4M7M8N1N4N6N9O1O5O8P0P5P8Q1Q6Q9
37501B482R3R7J02J05J09J12J16J20J21J24J26J26J26J24J22J18J13J06R8Q8P7O5N2L8K4J0mj8
37473D972l0m1n2o1o7p4p7q0q2q2q1p9p6p3o8o4n9n4m7m3l6l0k4j8j1oKPJ4K0K7L3M0M7N3O0O7
37435C927P3Q1Q7R4J01J07J14J20J26J30J36J40J43J45J46J47J45J42J39J33J26J19J10J00Q9
37410F920Q0O9N8M9M0L2K6J8J4J0NKjmrj2j8k3l1l8m8n6o7p8q8r8j08j17j24j32j37j42j44j46
37375E702j46j44j43j40j35j31j26j20j14j07j01r4q8q0p4o7o0n4m7m0l3k7k1j4pjNJ1J8K4L0
37344C676L6M2M8N4N8O4O9P3P6Q0Q1Q3Q2Q2P8P5O9O2N4M4L2K0Pqk1l6m9o3p5q6r6j04j11j16
37309D280j21j23j25j26j24j24j21j19j15j13j08j05j01r6r3q9q5q1p7p4p1o7o4o1n8n5n3n0m8
37280A633m6m3m2l9l8l6l5l3l1l1k8k8k6k6k4k3k3k1k1j9j9j8j8j6j7j5j5j4j4j3j3j2j2j1j1
37244H02j1j0j0rrrrqqppppopononnnnmmnlmmllllllkklkjkkjjkj%jj%j%%%%%J%JJJJJJKJKKKK
37174E95LKLKLLMLMLMMNMNNNNONOPOPPPPQQRQRJ0RJ1J0J1J1J2J2J3J3J4J4J5J5J6J7J7J8J8K0
37121A038K0K1K2K3K4K5K6K8K8L0L1L3L4L5L8L9M1M2M5M7N0N2N4N7O0O3O6O9P3P6Q0Q4Q7R1R6
37085B728R9J03J08J10J15J18J20J23J24J26J25J24J22J18J14J07R9R0P9O8N4M2K7J2jj5k8l9
37057D972n0n9o7p2p8q0q2q3q1q1p7p4p1o5o1n6m9m5l8l2k6k0j4pjNJ2J8K4L1L8M4N1N8O5P1P8
37019D098Q5R2R9J05J11J18J24J29J34J38J42J44J46J46J45J43J39J34J28J20J12J02R2Q1P1O1
36993G139N1M1L4K6K0J5J0OKjmpj2j7k3k9l7m5n5o4p6q5r6j06j16j23j31j36j41j44j46j47j45
36959E458j44j41j37j32j28j22j16j09j04r6r0q3p6o9o2n6m9m2l6k9k2j6j0lLRJ6K1K8L5M0M6
36927C784N1N7O3O7P1P5P8Q1Q1Q3Q1P9P5P0O4N5M6L5K2J0mj9l2m7o0p3q3r4j03j10j16j21j23
36893D043j25j26j26j24j23j20j17j13j11j06j02r9r4r1q6q3p9p5p2o9o6o2o0n6n5n1m9m7m5m3
36863A468m1l9l8l5l5l2l2l0k8k8k7k5k4k4k2k2k1k0j9j9j8j7j7j6j5j5j5j4j3j3j3j2j2j2j1
36827F94j0j1j0j0rrrrqrpqqppppooponoonnnnnnmnmmnmmlmmlmlmllllllkllklklkkkklkkjkkk
36758C64kjkjkjkjjkjjjjkjjjj%jjjj%jj%j%j%j%%j%%%%j%%%%%%%J%%%%J%J%%J%JJ%JJ%JJJJJJ
36685C42JJJJJKJJKJKJKKJKKKKKKKKKKLKLKLLKLLLLLMLLMMLMMMMMNMNNNNNNONOOOOPOPPPQQPRQ
36611F04RRRRJ0J0J1J0J1J2J2J2J3J3J3J4J5J5J5J6J7J7J8J9J9K0K1K2K2K4K4K5K7K7K9K9L2L2
36573A266L4L5L7L9M0M2M4M6M9N0N3N6N8O2O4O7P1P4P8Q1Q6R0R4R9J04J08J14J18J24J29J33
36541C545J39J44J48J52J55J59J60J62J63J61J59J56J51J44J38J28J20J08R8Q7P6O4N5M5L6K9
36515F682K2J7J1PLjnrj3k0k6l4m2n1o1p3q3r4j06j16j25j35j42j48j53j57j60j60j61j59j57
36483D351j54j51j47j43j38j32j28j23j17j13j07j03r7r4q8q5q0p7p2p0o5o3o0n6n4n2m8m7m4
36454A643m2m0l9l6l5l3l1l1k8k8k6k5k3k3k2k0k0j9j8j7j6j6j5j4j3j3j2j1j1j1j0rrqqppooo
36413H79nnmmlmklkkjjj%%J%KJKKLLLMMMNNOOOPQPRRRJ0J0J1J1J2J3J3J4J5J5J6J7J7J9J9K0K1
36357A201K2K3K5K5K7K7L0L0L2L4L5L7L8M1M2M5M7M9N1N4N7O0O3O6O9P3P7Q0Q5Q9R3R8J02J08
36322C035J12J18J22J28J33J38J42J47J51J55J58J60J61J62J60J59J55J50J45J37J28J19J08R8
36298F381Q6P5O5N4M5L6K9K1J7J1PKjnrj4j9k6l4m2n1o1p3q3r4j05j16j25j34j42j48j53j57
36264E237j59j60j60j59j57j54j51j46j42j38j32j27j22j17j12j07j02r7r2q8q4q0p5p2o8o5o2
36237B109n8n6n2n0m8m5m3m0l9l7l5l3l1l0k8k7k5k4k3k1k1j9j8j7j6j5j5j3j2j2j1j0rqqpoom
36197A137nllkjjjJJKKLMNNNPPQRRJ1J1J2J3J3J5J6J6J8J8K0K1K2K3K5K6K8K9L0L2L4L6L8L9M2
36151A777M4M7M9N1N4N7O0O4O6P0P4P8Q2Q6R0R5J00J04J10J15J19J25J30J35J40J45J49J52J56
36121D524J58J59J61J59J58J55J50J45J37J29J20J10R9Q7P7O6N5M6L7K9K2J6J1PKjnrj4k0k6l2
36088F712m2n0o0p1q1r3j04j15j24j34j41j48j53j58j60j61j62j61j58j57j53j49j44j40j35
36063C558j31j25j19j15j10j04j00r6r0q7q2p9p4p1o8o4o1n8n6n3n0m8m6m3m2l9l8l6l4l3l1l0
36030A345k9k7k6k5k3k3k2k0k0j9j8j7j7j6j5j4j4j3j2j2j1j1j0j0rqqqppponnnmmmlllkkjjj%
35983H18%%JJJKKLKMLMNNNNOPPPQRRRJ0J0J2J1J3J3J3J4J5J6J7J7J8K0K0K1K2K3K4K6K6K8K9L1
35934A372L3L3L6L7L9M1M4M5M7N0N3N5N8O2O4O7P1P5P9Q2Q7R1R5J01J05J10J15J20J26J30J35
35902C658J41J45J49J52J56J59J59J61J59J58J55J51J44J38J29J20J10R9Q8P6O6N6M5L7K9K2J6
35875F678J1OKjoj0j4k0k6l3m2n0o1p1q2r4j04j15j25j34j42j49j54j58j61j62j62j62j60j57
35844D142j54j50j46j41j36j31j26j21j16j11j06j01r7r2q8q4p9p6p3o9o6o3n9n8n4n2n0m7m5
35815A451m4m1m0l8l6l5l3l2l1l0k8k7k6k5k4k4k2k2k0k0k0j8j8j8j6j7j5j5j5j4j4j3j3j3j2
35779F22j1j2j1j0j1j0j0rrrrrqqqpqppppopoooononnnnnnnmnmnmmmmmlmmlmlmllllllllllkll
35713B51klklklkkklkkkkkkkkkkkjkkkjkkjkkjkjkjkjkjjkjjkjjjkjjjjkjjjjjjjjjjjjjjjjjj
35640A39jjjj%jjjjjj%jjj%jjj%jjj%jj%jj%jj%jj%j%jj%j%jj%j%j%j%j%jj%j%j%%j%j%j%j%j%
35567I3j%%j%j%j%%j%j%%j%j%%j%%j%%j%j%%j%%j%%j%%j%%j%%%j%%j%%j%%%j%%%j%%j%%%j%%%j
35492F8%%%j%%%j%%%j%%%%j%%%j%%%%j%%%j%%%%j%%%%j%%%%j%%%%%j%%%%j%%%%%j%%%%%j%%%%%
35418E4j%%%%%j%%%%%%j%%%%%j%%%%%%j%%%%%%%j%%%%%%j%%%%%%%j%%%%%%%j%%%%%%%%j%%%%%%
35344D4%%j%%%%%%%%j%%%%%%%%%j%%%%%%%%%j%%%%%%%%%%j%%%%%%%%%%j%%%%%%%%%%%j%%%%%%%
35270C7%%%%j%%%%%%%%%%%%j%%%%%%%%%%%%%j%%%%%%%%%%%%%j%%%%%%%%%%%%%%j%%%%%%%%%%%%
35195C2%%%%j%%%%%%%%%%%%%%%%j%%%%%%%%%%%%%%%%%j%%%%%%%%%%%%%%%%%%%j%%%%%%%%%%%%%
35121B8%%%%%%%j%%%%%%%%%%%%%%%%%%%%%j%%%%%%%%%%%%%%%%%%%%%%%j%%%%%%%%%%%%%%%%%%%
35047B5%%%%%%j%%%%%%%%%%%%%%%%%%%%%%%%%%%%j%%%%%%%%%%%%%%%%%%%%%%%%%%%%%j%%%%%%%
34973B2%%%%%%%%%%%%%%%%%%%%%%%%%%j%%%%%%%%%%%%%%%%%%%%%%%%%%%%%%%%%%%%j%%%%%%%%%
34898B0%%%%%%%%%%%%%%%%%%%%%%%%%%%%%%%j%%%%%%%%%%%%%%%%%%%%%%%%%%%%%%%%%%%%%%%%%
34824A9%%%j%%%%%%%%%%%%%%%%%%%%%%%%%%%%%%%%%%%%%%%%%%%%%%%%%j%%%%%%%%%%%%%%%%%%%
34750A7%%%%%%%%%%%%%%%%%%%%%%%%%%%%%%%%%%%%%j%%%%%%%%%%%%%%%%%%%%%%%%%%%%%%%%%%%
34675A6%%%%%%%%%%%%%%%%%%%%%%%%%%%%%j%%%%%%%%%%%%%%%%%%%%%%%%%%%%%%%%%%%%%%%%%%%
34601A5%%%%%%%%%%%%%%%%%%%%%%%%%%%%%%%j%%%%%%%%%%%%%%%%%%%%%%%%%%%%%%%%%%%%%%%%%
34527A4%%%%%%%%%%%%%%%%%%%%%%%%%%%%%%%%%%%%%%%%%%%%%%j%%%%%%%%%%%%%%%%%%%%%%%%%%
34453A3%%%%%%%%%%%%%%%%%%%%%%%%%%%%%%%%%%%%%%%%%%%%%%%%%%%%%%%%%%%%%%%%%%%%%%%%%
34378A3%%%%j%%%%%%%%%%%%%%%%%%%%%%%%%%%%%%%%%%%%%%%%%%%%%%%%%%%%%%%%%%%%%%%%%%%%
34304A2%%%%%%%%%%%%%%%%%%%%%%%%%%%%%%%%%%%%%%%%%%%%%%%%%%%%%%%%%%%j%%%%%%%%%%%%%
34230A1%%%%%%%%%%%%%%%%%%%%%%%%%%%%%%%%%%%%%%%%%%%%%%%%%%%%%%%%%%%%%%%%%%%%%%%%%
34156A1%%%%%%%%%%%%%%%%%%%%%%%%%%%%%%%%%%%%%%%%%%%%%%%%%%%%%%%%%%%%%%%%%%%%%%%%%
34081A1%%%%j%%%%%%%%%%%%%%%%%%%%%%%%%%%%%%%%%%%%%%%%%%%%%%%%%%%%%%%%%%%%%%%%%%%%
34007A0%%%%%%%%%%%%%%%%%%%%%%%%%%%%%%%%%%%%%%%%%%%%%%%%%%%%%%%%%%%%%%%%%%%%%%%%%
33933A0%%%%%%%%%%%%%%%%%%%%%%%%%%%%%%%%%%%%%%%%%%%%%%%%%%%%%%%%%%%%%%%%%%%%%%%%%
33859A0%%%%%%%%%j%%%%%%%%%%%%%%%%%%%%%%%%%%%%%%%%%%%%%%%%%%%%%%%%%%%%%%%%%%%%%%%
33784I%%%%%%%%%%%%%%%%%%%%%%%%%%%%%%%%%%%%%%%%%%%%%%%%%%%%%%%%%%%%%%%%%%%%%%%%%%
33709I%%%%%%%%%%%%%%%%%%%%%%%%%%%%%%%%%%%%%%%%%%%%%%%%%%%%%%%%%%%%%%%%%%%%%%%%%%
33634I%%%%%%%%%%%%%%%%%%%%%%%%%%%%%%%%%%%%%%%%%%%%%%%%%%%%%%%%%%%%%%%%%%%%%%%%%%
33559I%%%%%%%%%%%%%%%%%%%%%%%%%%%%%%%%%%%%%%%%%%%%%%%%%%%%%%%%%%%%%%%%%%%%%%%%%%
33483I%%j%%%%%%%%%%%%%%%%%%%%%%%%%%%%%%%%%%%%%%%%%%%%%%%%%%%%%%%%%%%%%%%%%%%%%%%
33408H%%%%%%%%%%%%%%%%%%%%%%%%%%%%%%%%%%%%%%%%%%%%%%%%%%%%%%%%%%%%%%%%%%%%%%%%%%
33333H%%%%%%%%%%%%%%%%%%%%%%%%%%%%%%%%%%%%%%%%%%%%%%%%%%%%%%%%%%%%%%%%%%%%%%%%%%
33257H%%%%%%%%%%%%%%%%%%%%%%%%%%%%%%%%%%%%%%%%%%%%%%%%%%%%%%%%%%%%%%%%%%%%%%%%%%
33182H%%%%%%%%%%%%%%%%%%%%%%%%%%%%%%%%%%%%%%%%%%%%%%%%%%%%%%%%%%%%%%%%%%%%%%%%%%
33107H%%%%%%%%%%%%%%%%%%%%%%%%%%%%%%%%%%%%%%%%%%%%%%%%%%%%%%%%%%%%%%%%%%%%%%%%%%
33032H%%%%%%%%%%%%%%%%%%%%%%%%%%%%%%%%%%%%%%%%%%%%%%%%%%%%%%%%%%%%%%%%%%%%%%%%%%
32956H%%%%%%%%%%%%%%%%%%%%%%%%%%%%%%%%%%%%%%%%%%%%%%%%%%%%%%%%%%%%%%%%%%%%%%%%%%
32881H%%%%%%%%%%%%%%%%%%%%%%%%%%%%%%%%%%%%%%%%%%%%%%%%%%%%%%%%%%%%%%%%%%%%%%%%%%
32806H%%%%%%%%%%%%%%%%%%%%%%%%%%%%%%%%%%%%%%%%%%%%%%%%%%%%%%%%%%%%%%%%%%%%%%%%%%
32730H%%%%%%%%%%%%%%%%%%%%%%%%%%%%%%%%%%%%%%%%%%%%%%%%%%%%%%%%%%%%%%%%%%%%%%%%%%
32655H%%%%%%%%%%%%%%%%%%%%%%%%%%%%%%%%%%%%%%%%%%%%%%%%%%%%%%%%%%%%%%%%%%%%%%%%%%
32580H%%%%%%%%%%%%%%%%%%%%%%%%%%%%%%%%%%%%%%%%%%%%%%%%%%%%%%%%%%%%%%%%%%%%%%%%%%
32505H%%%%%%%%%%%%%%%%%%%%%%%%%%%%%%%%%%%%%%%%%%%%%%%%%%%%%%%%%%%%%%%%%%%%%%%%%%
32429H%%%%%%%%%%%%%%%%%%%%%%%%%%%%%%%%%%%%%%%%%%%%%%%%%%%%%%%%%%%%%%%%%%%%%%%%%%
32354H%%%%%%%%%%%%%%%%%%%%%%%%%%%%%%%%%%%%%%%%%%%%%%%%J%%%%%%%%%%%%%%%%%%%%%%%%%
32279I%%%%%%%%%%%%%%%%%%%%%%%%%%%%%%%%%%%%%%%%%%%%%%%%%%%%%%%%%%%%%%%%%%%%%%%%%%
32204I%%%%%%%%%%%%%%%%%%%%%%%%%%%%%%%%%%%%%%%%%%%%%%%%%%%%%%%%%%%%%%%%%%%%%%%%%%
32128I%%%%%%%%%%%%%%%%%%%%%%%%%%%%%%%%%%%%%%%%%%%%%%%%%%%%%%%%%%%%%%%%%%%%%%%%%%
32053I%%%%%%%%%%%%%%%%%%%%%%%%%%%%%%%%%%%%%%%%%%%%%%%%%%%%%%%%%%%%%%%%%%%%%%%%%%
31978I%%%%%%%%%%%%%%%%%%%%%%%%%%%%%%%%%%%%%%J%%%%%%%%%%%%%%%%%%%%%%%%%%%%%%%%%%%
31902A0%%%%%%%%%%%%%%%%%%%%%%%%%%%%%%%%%%%%%%%%%%%%%%%%%%%%%%%%%%%%%%%%%%%%%%%%%
31828A0%%%%%%%%%%%%%%%%%%%%%%%%%%%%%%%%%%%%%%%%%%%%%%%%%%%%%%%%%%%%%%%%%%%%%%%%%
31754A0%%%%%%%%%%%%%%%%%%%%%%%%%%%%%%%%%%%%%%%%%J%%%%%%%%%%%%%%%%%%%%%%%%%%%%%%%
31680A1%%%%%%%%%%%%%%%%%%%%%%%%%%%%%%%%%%%%%%%%%%%%%%%%%%%%%%%%%%%%%%%%%%%%%%%%%
31605A1%%%%%%%%%%%%%%%%%%%%%%%%%%%%%%%%%%%%%%%%%%%%%%%%%%%%%%%%%%%J%%%%%%%%%%%%%
31531A2%%%%%%%%%%%%%%%%%%%%%%%%%%%%%%%%%%%%%%%%%%%%%%%%%%%%%%%%%%%%%%%%%%%%%%%%%
31457A2%%%%%%%%%%%%%%%%%%%%%%%%%%%%%%%%%%%%%%%%%%J%%%%%%%%%%%%%%%%%%%%%%%%%%%%%%
31383A3%%%%%%%%%%%%%%%%%%%%%%%%%%%%%%%%%%%%%%%%%%%%%%%%%%%%%%%%%%%%%%%%%%%%%%%%%
31308A3%J%%%%%%%%%%%%%%%%%%%%%%%%%%%%%%%%%%%%%%%%%%%%%%%%%%%%%%%%%%%%%%%%%%%%%%%
31234A4%%%%%%%%%%%%%%%%%J%%%%%%%%%%%%%%%%%%%%%%%%%%%%%%%%%%%%%%%%%%%%%%%%%%%%%%%
31160A5%%%%%%%%%%%%%%%%%%%%J%%%%%%%%%%%%%%%%%%%%%%%%%%%%%%%%%%%%%%%%%%%%%%%%%%%%
31086A6%%%%%%%%%%%%%J%%%%%%%%%%%%%%%%%%%%%%%%%%%%%%%%%%%%%%%%%%%%%%%%%%%%%%%%%%J
31011A8%%%%%%%%%%%%%%%%%%%%%%%%%%%%%%%%%%%%%%%%%%%%%%%%%%%J%%%%%%%%%%%%%%%%%%%%%
30937A9%%%%%%%%%%%%%%%%%%%%%%%%%J%%%%%%%%%%%%%%%%%%%%%%%%%%%%%%%%%%%%%%%%%%J%%%%
30863B1%%%%%%%%%%%%%%%%%%%%%%%%%%%%%%%%%J%%%%%%%%%%%%%%%%%%%%%%%%%%%%%%%%%%%J%%%
30788B3%%%%%%%%%%%%%%%%%%%%%%%%%%%%J%%%%%%%%%%%%%%%%%%%%%%%%%%%%%J%%%%%%%%%%%%%%
30714B5%%%%%%%%%%%%%J%%%%%%%%%%%%%%%%%%%%%%%%%J%%%%%%%%%%%%%%%%%%%%%%%J%%%%%%%%%
30640B8%%%%%%%%%%%%%J%%%%%%%%%%%%%%%%%%%%J%%%%%%%%%%%%%%%%%%%J%%%%%%%%%%%%%%%%%%
30566C1J%%%%%%%%%%%%%%%%J%%%%%%%%%%%%%%%%J%%%%%%%%%%%%%%%J%%%%%%%%%%%%%%J%%%%%%%
30491C6%%%%%%%J%%%%%%%%%%%%J%%%%%%%%%%%%%J%%%%%%%%%%%J%%%%%%%%%%%J%%%%%%%%%%J%%%
30417D2%%%%%%%J%%%%%%%%%%J%%%%%%%%%J%%%%%%%%%J%%%%%%%%J%%%%%%%%J%%%%%%%%J%%%%%%%
30343D9J%%%%%%%J%%%%%%%J%%%%%%J%%%%%%%J%%%%%%J%%%%%%J%%%%%J%%%%%%J%%%%%J%%%%%J%%
30269F0%%%J%%%%J%%%%%J%%%%J%%%%%J%%%%J%%%%J%%%J%%%%J%%%%J%%%J%%%%J%%%J%%%J%%%J%%
30194G5%J%%%J%%%J%%J%%%J%%%J%%J%%%J%%J%%J%%J%%J%%%J%%J%%J%J%%J%%J%%J%J%%J%%J%J%%
30120I8J%J%%J%J%J%%J%J%J%J%J%%J%J%J%J%J%J%JJ%J%J%J%JJ%J%J%JJ%J%JJ%JJ%JJ%JJ%JJ%JJ
30046A38J%JJJ%JJJ%JJJJ%JJJJJJ%JJJJJJJJJJJJJJJJJJJJJJJJKJJJJJKJJJKJJKJJKJJKJKJKJK
29973B14JKJKJKKJKKJKKKKJKKKKKKKKKKKKLKKKLKKLKLKLKLLKLLLLLLLLLLLLMLMLMLMMLMMMMMMN
29899D00MNMNMNNNNNNNONOOONPOOPOPPPPPQPQQQQRRRRRJ0RJ0J0J1J1J1J1J1J2J2J3J3J3J3J4J4
29842H48J5J4J6J5J7J6J7J8J8J9J9K0K0K1K1K3K3K3K5K5K6K7K7K9K9L1L2L2L4L5L7L7L9M1M2M3
29806A774M6M6M9N1N3N4N7O0O2O4O7P0P3P6Q0Q3Q7R1R5J00J04J09J15J19J26J32J39J45J53J61
29775D441J68J78J86J96K06K17K28K40K52K65K78K92L06L20L35L50L65L80L94M08M20M32M41
29752A1298M49M53M55M52M45M34M17L94L66L32K91K46J96J41Q4K4l4r4j51k05k54k98l38l71
29727A4732l98m20m35m46m52m54m52m47m38m29m17m05l90l77l61l47l31l17l02k89k74k62k49
29704F040k36k25k14k04j93j84j75j66j58j51j43j37j30j23j18j13j07j03r8r3q9q6q1p8p5p2
29678B488o8o6o3o0n8n6n3n2m9m8m5m4m3m0m0l7l7l5l4l2l2l0l0k8k8k6k6k5k4k3k3k1k1k1k0
29642A150j9j8j8j8j7j6j6j6j5j4j4j4j3j3j3j2j2j2j1j1j0j1j0rj0rrrqqrpqpqpopopooononn
29594F54nnnmnmnmmmlmmllmlllllklklkkkkkkkkkjkjkjjkjjjj%jjj%j%j%%j%%%%%%J%%%J%J%JJ
29521E30J%JJJJKJJJKJKJKJKKKKKKKKKLKLKLKLLLLLLLMLLMMLMMMMMNMMNNMNNNONNOONOPOOPOPP
29448G71PPQPQQQQRRQJ0RRJ0J0J0J1J0J1J1J2J2J2J2J3J2J4J3J4J4J5J5J5J6J7J6J7J8J8J8J9
29405A271K0K0K1K1K2K2K3K4K4K6K6K6K8K8L0L0L1L2L4L4L6L6L8L9M1M2M3M5M7M8N0N2N4N6N8
29369B478O1O2O5O8P1P3P7Q0Q3Q6R1R4R9J03J08J12J18J23J30J35J42J48J56J64J71J81J89J99
29341E667K08K20K30K42K54K67K80K93L08L23L37L53L68L83L98M12M26M39M50M59M65M70M71
29318A3723M66M59M46M28M03L74L37K96K49J98J43Q6K7l2q9j45j96k42k85l20l51l74l93m05
29293A4803m14m16m15m10m03l92l81l66l52l35l19l02k85k68k50k34k17k01j85j69j54j39j24
29270H072j10r6q2o9n5m3k9j7mRK2L5M8O1P5Q7J02J16J30J45J60J75J91K08K23K41K57K74K92
29240A0418L09L25L42L58L72L86L98M06M14M17M18M12M04L89L69L44L11K73K30J82J29P3J5m3
29216A7651j03j58k13k63l08l47l82m10m32m49m60m67m69m67m62m54m45m33m20m06l92l76l61
29192H974l46l30l16l02k87k74k60k48k36k25k13k04j93j84j75j67j58j52j44j37j30j25j19
29169D049j14j08j03r9r4r1q6q3p9p5p3o9o6o4o1n9n6n4n2m9m8m6m4m2m0l9l8l5l5l3l2l1k9k8
29134A994k7k6k5k4k3k2k2k0j9j9j8j6j7j5j5j4j3j3j2j1j0j0j0rqpppnomnllljkj%%JKKKMLNN
29086A546NOPPQRJ0J0J0J2J2J3J4J5J5J6J7J8J9K0K1K2K3K5K5K7K7K9L1L2L3L5L6L8M0M2M4M5
29047B364M8N0N2N5N7O0O2O6O8P2P6P9Q3Q6R2R5J01J05J11J16J22J29J35J42J49J58J65J74J84
29017E256J93K03K14K26K37K49K62K76K89L03L19L32L48L63L78L91M06M18M29M39M46M51M52
28994A2880M49M42M31M13L91L61L28K86K41J91J36P8J9m0r9j56k10k58l03l42l75m01m23m39
28970A3600m48m55m56m54m48m40m31m19m05l92l78l63l47l33l18l04k90k76k62k51k38k26k15
28946E451k05j95j85j76j68j60j52j45j37j32j25j20j14j09j04r9r5r1q7q3p9p7p3p0o7o5o2n9
28918B217n8n5n3n1m9m7m5m4m3m0m0l8l6l6l4l3l2l1l0k9k8k8k6k6k5k4k3k3k2k1k1k0j9j9j9
28882A049j8j8j7j6j6j6j5j5j5j4j4j3j3j3j3j2j2j2j1j1j1j1j0j0j0j0rrj0qrrqqqqqppqppop
28837E60poooooooononnnnnnnnmnmnmmmnmmmlmmmlmlmlmlllmlllllllklllkllklklkklkklkkkl
28764B85kkkkkkkkkkkkjkkkkjkkjkkjkjkkjkjkjkjjkjkjjkjjkjjjkjjjkjjjjjjkjjjjjjjjjjjj
28691A80jjjjjjjjjj%jjjjjjj%jjjj%jjjj%jjj%jjj%jj%jjj%jj%jj%jj%j%jj%j%jj%j%jj%j%j%
28618A27j%jj%j%j%j%j%j%j%j%j%j%%j%j%j%j%j%%j%j%j%%j%j%%j%j%%j%%j%j%%j%%j%%j%j%%j
28544I5%%j%%j%%j%%j%%%j%%j%%j%%j%%%j%%j%%%j%%%j%%j%%%j%%%j%%%j%%%j%%%j%%%j%%%%j%
28470G5%%j%%%j%%%%j%%%%j%%%%j%%%%j%%%%j%%%%j%%%%j%%%%%j%%%%j%%%%%j%%%%%j%%%%%j%%
28396F1%%%j%%%%%%j%%%%%j%%%%%%j%%%%%%j%%%%%%j%%%%%%%j%%%%%%j%%%%%%%j%%%%%%%%j%%%
28322E1%%%%j%%%%%%%%j%%%%%%%%j%%%%%%%%j%%%%%%%%%j%%%%%%%%%j%%%%%%%%%%j%%%%%%%%%%
28247D4j%%%%%%%%%%j%%%%%%%%%%%j%%%%%%%%%%%%j%%%%%%%%%%%j%%%%%%%%%%%%%j%%%%%%%%%%
28173C8%%%j%%%%%%%%%%%%%%j%%%%%%%%%%%%%%%j%%%%%%%%%%%%%%%j%%%%%%%%%%%%%%%%%j%%%%
28099C3%%%%%%%%%%%%%j%%%%%%%%%%%%%%%%%%j%%%%%%%%%%%%%%%%%%%%j%%%%%%%%%%%%%%%%%%%
28025C0%j%%%%%%%%%%%%%%%%%%%%%%%j%%%%%%%%%%%%%%%%%%%%%%%%j%%%%%%%%%%%%%%%%%%%%%%
27950B7%%%j%%%%%%%%%%%%%%%%%%%%%%%%%%%%j%%%%%%%%%%%%%%%%%%%%%%%%%%%%%j%%%%%%%%%%
27876B4%%%%%%%%%%%%%%%%%%%%%%%j%%%%%%%%%%%%%%%%%%%%%%%%%%%%%%%%%%%j%%%%%%%%%%%%%
27802B2%%%%%%%%%%%%%%%%%%%%%%%%%%j%%%%%%%%%%%%%%%%%%%%%%%%%%%%%%%%%%%%%%%%%%%j%%
27728B0%%%%%%%%%%%%%%%%%%%%%%%%%%%%%%%%%%%%%%%%%%%%%%j%%%%%%%%%%%%%%%%%%%%%%%%%%
27653A9%%%%%%%%%%%%%%%%%%%%%%%%%%%j%%%%%%%%%%%%%%%%%%%%%%%%%%%%%%%%%%%%%%%%%%%%%
27579A8%%%%%%%%%%%%%%%%j%%%%%%%%%%%%%%%%%%%%%%%%%%%%%%%%%%%%%%%%%%%%%%%%%%%%%%%%
27505A7%%%%%%%%%%%%%j%%%%%%%%%%%%%%%%%%%%%%%%%%%%%%%%%%%%%%%%%%%%%%%%%%%%%%%%%%%
27430A6%%%%%%%%%%%%%%%%%%%%%%j%%%%%%%%%%%%%%%%%%%%%%%%%%%%%%%%%%%%%%%%%%%%%%%%%%
27356A5%%%%%%%%%%%%%%%%%%%%%%%%%%%%%%%%%%%%%%%%%%%%%%%j%%%%%%%%%%%%%%%%%%%%%%%%%
27282A4%%%%%%%%%%%%%%%%%%%%%%%%%%%%%%%%%%%%%%%%%%%%%%%%%%%%%%%%%%%%%%%%%%%%%%%%%
27208A4%%%%%%%%%%%%%%%%%%%%%%j%%%%%%%%%%%%%%%%%%%%%%%%%%%%%%%%%%%%%%%%%%%%%%%%%%
27133A3%%%%%%%%%%%%%%%%%%%%%%%%%%%%%%%%%%%%%%%%%%%%%%%%%%%%%%%%%%%%%%%%%%%%%%%%%
27059A3%%%%%%%%%%%%%%%%%%%%%%%%%%%%%%%%j%%%%%%%%%%%%%%%%%%%%%%%%%%%%%%%%%%%%%%%%
26985A2%%%%%%%%%%%%%%%%%%%%%%%%%%%%%%%%%%%%%%%%%%%%%%%%%%%%%%%%%%%%%%%%%%%%%%%%%
26911A2%%%%%%%%%%%%%%%%%%%%%%%%%%%%%%%%%%%%%%%%%%%%%%%%%%%%%%%%%%%%%%%%%%%%%%%%%
26836A2%%%%%%%%%%%%%%%%%%%%%%%%%%%%%%%%%%%%%%j%%%%%%%%%%%%%%%%%%%%%%%%%%%%%%%%%%
26762A1%%%%%%%%%%%%%%%%%%%%%%%%%%%%%%%%%%%%%%%%%%%%%%%%%%%%%%%%%%%%%%%%%%%%%%%%%
26688A1%%%%%%%%%%%%%%%%%%%%%%%%%%%%%%%%%%%%%%%%%%%%%%%%%%%%%%%%%%%%%%%%%%%%%%%%%
26614A1%%%%%%%%%%%%%%%%%%%%%%%%%%%%%%%%%%%%%%%%%%%%%%%%%%%%%%%%%%%%%%%%%%%%%%%%%
26539A1%%%%%%%%%%%%%%%%%%%%%%%%%%%%%%%%%%%%%%%%%%%%%%%%%%%%%%%%%%%%%%%%%%%%%%%%%
26465A1%%%%%%%%%%%%%%%%%%%%%%%%%%%%%%%%%%%%%%%%%%%%%%%%%%%%%%%%%%%%%%%%%%%%%%%%%
26391A1%%%%%%%%%%%%%%%%%%%%%%%%%%%%%%%%%%%%%%%%%%%%%%%%%%%%%%%%%%%%%%%%%%%%%%%%%
26317A1%%%%%%%%%%%%%%%%%%%%%%%%%%%%%%%%%%%%%%%%%%%%%%%%%%%%%%%%%%%%%%%j%%%%%%%%%
26242A0%%%%%%%%%%%%%%%%%%%%%%%%%%%%%%%%%%%%%%%%%%%%%%%%%%%%%%%%%%%%%%%%%%%%%%%%%
26168A0%%%%%%%%%%%%%%%%%%%%%%%%%%%%%%%%%%%%%%%%%%%%%%%%%%%%%%%%%%%%%%%%%%%%%%%%%
26094A0%%%%%%%%%%%%%%%%%%%%%%%%%%%%%%%%%%%%%%%%%%%%%%%%%%%%%%%%%%%%%%%%%%%J%%%%%
26020A1%%%%%%%%%%%%%%%%%%%%%%%%%%%%%%%%%%%%%%%%%%%%%%%%%%%%%%%%%%%%%%%%%%%%%%%%%
25945A1%%%%%%%%%%%%%%%%%%%%%%%%%%%%%%%%%%%%%%%%%%%%%%%%%%%%%%%%%%%%%%%%%%%%%%%%%
25871A1%%%%%%%%%%%%%%%%%%%%%%%%%%%%%%%%%%%%%%%%%%%%%%%%%%%%%%%%%%%%%%%%%%%%%%%%%
25797A1%%%%%%%%%%%%%%%%%%%%%%%%%%%%%%%%%%%%%%%%%%%%%%%%%%%%%%%%%%%%%%%%%%%%%%%%%
25722A1%%%%%%%%%%%%%%%%%%%%%%%%%%%%%%%%%%%%%%%%%%%%%%%%%%%%%%%%%%%%%%%%%%%%%%%%%
25648A1%%%%%%%%%%%%%%%%%%%%%%%%%%%%%%%%%%%%%%%%%%%%%%%%%%%%%%%%%%%%%%%%%%%%%%%%%
25574A1%%%%%%%%%%%%%%%%%%%%%%%%%%%%%%%%%%%%%%%%%%%%%%%%%%%%%%%%%%%%%%%%%%%%%%%%%
25500A1%%%%%%%%%%%%%%%%%%%%%%%%%%%%%%%%%%%%%%%%%%%%%%%%%%%%%%%%%%%%%%%%%%%%%J%%%
25425A2%%%%%%%%%%%%%%%%%%%%%%%%%%%%%%%%%%%%%%%%%%%%%%%%%%%%%%%%%%%%%%%%%%%%%%%%%
25351A2%%%%%%%%%%%%%%%%%%%%%%%%%%%%%%%%%%%%%%%%%%%%%%%%%%%%%%%%%%%%%%%%%%%%%%%%%
25277A2%%%%%%%%%%%%%%%%%%%%%%%%%%%%%%%%%%%%%%%%%%%%%%%%%%%%%%%%%%%%%%%%%%%%%%%%%
25203A2%%%%%%%%%%%%%%%%%%%%%%%%%%%%%%%%%%%%%%%%%%%%%J%%%%%%%%%%%%%%%%%%%%%%%%%%%
25128A3%%%%%%%%%%%%%%%%%%%%%%%%%%%%%%%%%%%%%%%%%%%%%%%%%%%%%%%%%%%%%%%%%%%%%%%%%
25054A3%%%%%%%%%%%%%%%%%%%%%%%%%%%%%%%%%%%%%%%%%%%%%%%%%%%%%%%%%%%%%%%%%%%%%%%%%
24980A3%%%%%%%%%%%%%%%%%%J%%%%%%%%%%%%%%%%%%%%%%%%%%%%%%%%%%%%%%%%%%%%%%%%%%%%%%
24906A4%%%%%%%%%%%%%%%%%%%%%%%%%%%%%%%%%%%%%%%%%%%%%%%%%%%%%%%%%%%%%%%%%%%%%%%%%
24831A4%%%%%%%%%%%%%%%%%%%%%%%%J%%%%%%%%%%%%%%%%%%%%%%%%%%%%%%%%%%%%%%%%%%%%%%%%
24757A5%%%%%%%%%%%%%%%%%%%%%%%%%%%%%%%%%%%%%%%%%%%%%%%%%%%%%%%%%%%%%%%%%%%%%%%%%
24683A5%%%J%%%%%%%%%%%%%%%%%%%%%%%%%%%%%%%%%%%%%%%%%%%%%%%%%%%%%%%%%%%%%%%%%%%%%
24609A6%%%%%%%%%%%%%%%%%%%%%%%%%%%%%%%%%%%%J%%%%%%%%%%%%%%%%%%%%%%%%%%%%%%%%%%%%
24534A7%%%%%%%%%%%%%%%%%%%%%%%%%%%%%%%%%%%%%%%%%%%%%%%%%%%%%%%J%%%%%%%%%%%%%%%%%
24460A8%%%%%%%%%%%%%%%%%%%%%%%%%%%%%%%%%%%%%%%%%%%%%%%%%%%%%%%%%%%%%%J%%%%%%%%%%
24386A9%%%%%%%%%%%%%%%%%%%%%%%%%%%%%%%%%%%%%%%%%%%%%%%%%%%%%%%%%%%%J%%%%%%%%%%%%
24312B0%%%%%%%%%%%%%%%%%%%%%%%%%%%%%%%%%%%%%%%%%%%%%%%%%%J%%%%%%%%%%%%%%%%%%%%%%
24237B1%%%%%%%%%%%%%%%%%%%%%%%%%%%%%%%%%%J%%%%%%%%%%%%%%%%%%%%%%%%%%%%%%%%%%%%%%
24163B2%%%%%%%%%%%%%J%%%%%%%%%%%%%%%%%%%%%%%%%%%%%%%%%%%%%%%%%%%%%%J%%%%%%%%%%%%
24089B4%%%%%%%%%%%%%%%%%%%%%%%%%%%%%%J%%%%%%%%%%%%%%%%%%%%%%%%%%%%%%%%%%%%%%J%%%
24015B6%%%%%%%%%%%%%%%%%%%%%%%%%%%%%%%%J%%%%%%%%%%%%%%%%%%%%%%%%%%%%%%%%%J%%%%%%
23940B8%%%%%%%%%%%%%%%%%%%%%%%%J%%%%%%%%%%%%%%%%%%%%%%%%%%%%J%%%%%%%%%%%%%%%%%%%
23866C0%%%%%%%J%%%%%%%%%%%%%%%%%%%%%%%%J%%%%%%%%%%%%%%%%%%%%%%%J%%%%%%%%%%%%%%%%
23792C3%%%%%J%%%%%%%%%%%%%%%%%%%%J%%%%%%%%%%%%%%%%%%%J%%%%%%%%%%%%%%%%%%J%%%%%%%
23717C7%%%%%%%%%J%%%%%%%%%%%%%%%%J%%%%%%%%%%%%%%%J%%%%%%%%%%%%%%J%%%%%%%%%%%%%J%
23643D2%%%%%%%%%%%%J%%%%%%%%%%%%J%%%%%%%%%%%J%%%%%%%%%%%J%%%%%%%%%%J%%%%%%%%%%J%
23569D8%%%%%%%%%J%%%%%%%%%J%%%%%%%%J%%%%%%%%J%%%%%%%%J%%%%%%%%J%%%%%%%J%%%%%%%J%
23495E6%%%%%J%%%%%%%J%%%%%%J%%%%%%J%%%%%J%%%%%%J%%%%%J%%%%%J%%%%%J%%%%J%%%%%J%%%
23420F7%J%%%%J%%%%J%%%%J%%%%J%%%%J%%%J%%%J%%%%J%%%J%%%J%%%J%%%J%%J%%%J%%J%%%J%%J
23346H5%%%J%%J%%J%%J%%J%%J%%J%%J%%J%J%%J%J%%J%%J%J%J%%J%J%J%J%%J%J%J%J%J%J%J%J%J
23272A14%JJ%J%J%JJ%J%JJ%J%JJ%JJ%JJ%JJJ%JJJ%JJJ%JJJJJ%JJJJJJJ%JJJJJJJJJJJKJJJJJJJ
23199A71KJJJJKJJKJJKJJKJKJKJKJKKJKKJKKKKJKKKKKKKKLKKKKLKLKLKLKLLKLLLLLLLMLLMLMLM
23125C24MMMMMMMNMNMNNNNNNONOOOOOPPOPPQPQQQQRRRRJ0RJ0J1J1J1J1J2J2J2J3J4J3J4J5J5J6
23068G67J6J6J8J7J9J9K0K0K2K2K3K3K5K6K6K8K9L0L1L2L4L6L6L9M0M2M4M5M8N0N3N4N8O0O3O6
23032A997P0P3P6Q1Q4Q9R4R8J03J09J14J20J26J32J39J46J53J60J68J75J83J90J97K04K10K16
23005E507K21K25K27K28K27K24K18K10J99J85J68J48J25J01P4M5J5j4m4p2j00j24j47j66j84
22980G496j97k08k16k22k25k26k25k22k19k14k08k02j94j88j80j73j65j58j50j44j36j30j24
22957C170j17j12j06j01r5r1q6q2p8p4p1o7o3o1n7n5n2n0m7m5m3m1l9l7l6l4l2l1k9k8k7k6k4
22923A233k4k2k1k1j9j9j7j7j7j5j5j4j3j3j2j1j1j1j0rrqqpppononmmmlllkkjjjj%%JJJKKKLL
22870H40LMMMNNOOPPPQQRRJ0J0J1J1J2J2J3J4J4J6J5J7J7J8J9K0K0K2K2K4K5K6K7K8L0L1L2L4
22826A482L6L7L9M1M3M5M7M9N2N5N7O0O4O6P0P3P8Q1Q6R0R5R9J05J11J16J23J28J35J42J49J57
22795D011J63J71J79J86J93K00K07K13K18K22K25K27K26K24K18K12K01J89J72J54J32J08Q1N3
22770H385K4ol5o5r2j17j41j62j79j95k06k15k22k25k27k27k25k21k17k12k05j98j91j84j77
22745D265j69j61j55j47j40j34j27j21j15j09j04r9r3r0q5q0p7p3p0o6o3o0n7n5n2n0m7m6m3m1
22714A536m0l8l6l5l3l2l0l0k8k6k6k5k4k3k2k1k0k0j8j8j8j7j6j5j5j5j3j4j3j2j2j2j1j1j0
22679G87j0j0rrrqqqpqpopoooonnnnnmmmmmlmlllllklkkkkkjkjjjjjjj%j%%j%J%%J%JJJJJJJKJ
22608E75KKKKKKLKLLLLLLMLMMMMNMNNNNOONPOOPPPQPQQRRRRJ0J0J0J1J1J1J2J2J3J3J3J4J5J5
22550I56J6J6J6J8J8J8K0K0K1K1K3K3K5K5K6K7K9K9L1L2L4L5L6L8M0M2M3M6M7N0N2N4N7O0O3O5
22513B172O9P3P6Q0Q4Q8R3R7J03J07J14J19J25J31J38J45J52J59J67J74J82J89J96K03K10K15
22487E661K21K25K28K29K28K26K21K13K03J90J73J55J32J08Q2N3K4ol5o4r1j17j40j61j77j93
22460G588k04k12k19k22k24k23k21k18k12k07k01j94j87j79j71j65j56j49j42j35j29j21j16
22437C381j09j04r8r3q8q3p9p5p0o7o3n9n7n3n0m7m5m2l9l7l5l3l1k9k7k5k3k2k0j9j7j5j4j3
22402A700j1j0rponlljJJLMNPQRJ1J2J3J5J6J8K0K1K3K4K7K8L1L2L5L7L9M2M4M8N0N3N6N9O3O6
22358B566P0P3P8Q1Q5R0R4R7J02J06J09J13J15J18J20J22J21J21J18J16J11J05R7Q9P8O7N4M0
22330E256K7J2jj6k9m0n2o1o9p5q1q4q7q7q7q5q4q0p7p3o8o3n8n3m7m1l6l0k4j8j3ojNJ1J7K3
22292C725K9L5M2M8N4O1O8P4Q2Q9R7J04J12J20J29J36J46J53J63J70J79J87J95K02K08K13K17
22265G038K19K21K19K16K10K01J89J75J58J37J14Q8O2L3Mk5n3q1j06j30j50j67j83j94k04k09
22238G782k14k14k14k11k07k02j96j88j81j72j64j56j46j38j29j20j12j03r5q7p9p1o3n6m9m1
22212D174l5k7k1j3pjPJ3J9K6L2L9M5N1N6O2O8P2P6Q0Q4Q5Q6Q7Q5Q2P9P3O5N8M7L6K4J0lj8l1
22174E565m4n7o9p9q9r6j03j08j10j13j14j14j12j11j08j04j01r7r3q8q4p9p4p0o5o0n7n1m8m3
22144C024l9l6l1k8k3k0j7j3rolJMQJ2J4J9K2K5K9L3L7M1M6M9N4N8O4O8P3P9Q4R0R7J02J09J16
22106D133J23J30J38J45J53J60J69J77J84J91J99K04K11K15K18K20K20K18K14K07J98J85J69
22083H381J52J30J06Q0N2K4ol6o4r2j18j41j62j80j95k06k16k23k26k28k27k26k22k18k12k06
22056E521j98j92j84j77j68j62j54j46j39j33j26j19j13j08j02r6r2q6q2p8p3p0o5o3n8n6n2n0
22028B379m7m4m2l9l7l5l2l1k8k7k5k3k2k0j8j7j5j4j2j1j0qpomljjJKMNOPRJ0J2J3J4J6J8J9
21985A936K1K3K4K6K8L0L2L4L7L9M1M4M6N0N2N5N9O2O6O9P4P8Q2Q7R2R7J02J08J14J21J27J33
21953C989J41J47J55J63J70J78J85J93K00K06K13K18K21K25K26K26K23K19K10K01J87J72J52
21929H420J30J06Q0N1K2pl7o6r2j18j41j61j78j93k04k12k19k21k23k23k19k16k11k06j98j92
21903E272j84j76j69j61j53j45j38j31j23j17j10j03r8r2q5q1p5p0o6o1n6n2m8m4m0l7l2k9k6
21873B570k2j8j6j2qokKMQJ2J5J8K2K6K9L4L7M1M5N0N4N8O2O7P1P6Q0Q4Q8R1R5R7R9J01J01J00
21836D153R9R5R2Q5P8O9N9M8L4K1Pqk2l7n1o3p5q5r4j02j08j12j16j17j19j18j17j16j13j10
21805C157j07j04j00r6r2q8q5q0p7p3p0o6o3o0n7n4n2m8m6m4m2l9l8l5l4l2l0k9k7k6k5k3k2k0
21770A273k0j8j8j6j6j4j4j3j2j1j0j0qqqoonnmllkj%%%KKLLMNOOPQRJ0J0J2J2J4J4J6J6J8J9
21722A238K0K2K3K4K6K8K9L2L3L5L7L9M2M4M7M9N2N5N8O2O5O8P2P5P9Q3Q7R1R4R7J02J04J06
21688C118J09J11J11J10J10J07J04R9R2Q4P5O4N2L8K5J0nk0l4m8o0p3q2r2r8j05j09j13j14j15
21657C351j15j14j12j09j07j04j01r7r3r0q5q2p9p5p1o8o5o1n9n6n3n0m8m6m4m1l9l8l6l4l3l1
21625A115l0k8k7k6k5k3k3k2k0k0j9j9j7j7j6j6j5j4j4j4j3j2j2j1j1j1j0j0j0rrrqrpqpqpopo
21582E10oooonnnnnnnmmnmmlmmmllmlllllllkllklkklkkkkkkkkkkjkkkjkjkjkjjkjjjkjjjjjjj
21509C12jjjjjjj%jjj%jj%jj%jj%j%j%j%j%%j%j%%j%%%j%%%%j%%%%%%j%%%%%%%%%%%%%J%%%%%%
21436B87J%%%%J%%%J%%J%%J%%J%J%J%J%J%J%J%J%JJ%JJ%JJJ%JJJ%JJJJJJJ%JJJJJJJKJJJJJJKJ
21362C35JJKJJKJKJJKJKKJKJKKKJKKKKJKKKKLKKKKKLKKLKLKLLKLLLLLLLLLLLMLMLMMLMMMMMNMM
21289E12NNMNNNNNONOOOOOOOPPPPPPQQQQQRRRRJ0J0J0J0J1J1J2J1J2J3J2J4J3J4J4J5J6J5J7J7
21236I79J7J8J9J9K0K0K2K2K3K4K4K6K6K8K9L0L0L3L3L5L7L8L9M1M3M5M7M9N2N4N6N9O1O5O8P1
21200B302P4P8Q2Q7R0R6J00J05J10J16J22J29J34J41J49J55J63J70J77J85J92K00K06K13K18
21174E794K24K26K29K30K28K25K19K11J99J85J67J48J24J00P2M3J4j6m6p3j01j25j47j66j83
21149G781j96k07k15k20k22k23k22k20k15k10k04j98j91j83j76j69j61j53j46j39j32j26j19
21125C534j13j07j01r6r1q6q1p7p3o9o5o1n8n5n2m9m7m3m1l9l7l4l2l1k8k7k5k3k2k0j9j7j6j5
21091A784j3j2j1rrponmlkjJJKMMOOQRJ0J1J2J3J4J6J7J8J9K1K2K4K5K7K8L0L2L4L5L8L9M2M4
21046B314M7M9N1N5N7O1O3O8P0P5P9Q2Q8R2R7J02J08J13J19J26J32J38J46J53J61J68J75J83
21018E172J91J98K05K11K17K23K26K29K30K29K26K21K12K02J88J72J52J29J05P7N0K0j0l9o7r4
20991H875j20j41j61j78j92k03k11k16k19k20k19k16k12k08k01j95j88j80j73j65j57j50j42
20968D608j35j28j21j14j08j02r5r1q5q0p5p0o6o2n7n4n0m7m4m0l7l4l2k9k6k3k2j9j7j4j2j1q
20934B700pml%JLMPQJ0J2J4J5J7J9K1K3K5K6K9L0L2L5L7L9M1M3M6M9N1N3N7N9O3O5O9P3P6P9Q4
20894D001Q8R2R6J02J06J12J17J23J29J36J42J50J57J66J73J83J91K02K12K22K34K45K58K70
20869G907K83K97L11L25L40L54L68L83L97M09M22M33M42M49M55M57M57M52M45M33M18L98L74
20846A7009L45L15K80K41K02J60J18P3L1j2n2r2j27j60j90k14k35k52k63k70k73k72k67k58k47
20820A5590k31k15j96j74j53j29j04q0n3k8jK5N1P6J02J27J50J73J93K14K30K46K57K67K73K74
20794A6884K73K65K55K39K19J95J66J34R8O0J9k3o6j10j52j94k35k73l08l40l69l93m14m30m42
20768A5058m50m55m56m53m50m42m32m23m10l97l83l70l54l41l25l12k98k84k70k58k46k34k22
20745F793k12k02j91j82j74j64j57j49j42j35j29j22j16j11j06j00r5r1q7q2p9p4p1o8o4o1n8
20718C571n4n2n0m7m4m1m0l7l4l3l0k9k6k4k3k0j9j7j4j3j2rpomk%JMNQRJ2J3J6J7K0K3K5K7L0
20676C094L2L5L8M1M4M8N1N4N8O2O6P1P5P9Q5R0R5J01J07J14J19J27J34J40J49J56J64J71J80
20646E780J88J95K03K09K16K22K26K29K30K31K28K24K16K07J93J78J59J38J13Q8O0L1Lk7n4q0
20620I606j05j26j46j62j74j85j93j96j99j99j96j92j87j80j72j65j55j45j36j26j15j06r5q5
20595E866p4o5n5m5l6k6j6q%J0J7K5L2L8M5N0N4N7N9O0O0N7N4M9M2L4K4J3Kj2k4l8n1o4p5q5r6
20558E878j03j10j15j19j21j23j22j22j19j17j14j11j06j02r7r2q8q3p8p4o9o4n9n6n1m6m3l9
20529C335l4l1k8k3k1j6j3j0omJLPJ1J3J7K1K4K8L1L5L9M3M7N2N5O1O5P0P6Q0Q7R2R8J05J11
20493D421J18J25J33J40J47J56J63J71J79J86J94K01K07K13K17K20K22K22K20K15K08J98J86
20469H662J70J51J29J05Q0N1K2pl6o6r2j18j41j61j79j94k05k14k19k24k25k24k22k18k14k08
20443F203k01j94j87j80j71j64j56j49j42j34j27j20j14j08j02r6r1q6q0p6p2o7o3n9n6n2m9m6
20414C061m2m0l7l4l1l0k6k5k2k0j8j6j4j2j1qpnlkJJMNPQJ0J2J3J5J7J8K0K2K4K5K8K9L1L3L6
20373C017L7M0M2M4M7M9N2N5N8O0O4O7P0P4P8Q2Q5R0R5R9J05J09J15J21J27J34J40J48J54J63
20342E621J71J80J88J98K08K18K29K40K51K63K75K88K99L12L24L37L48L59L71L81L90L98M05
20319A2254M12M16M20M23M24M23M23M19M17M11M04L96L85L72L55L35L11K83K50K12J70J24P3K0
20294B0132l5r1j47k00k52k99l43l79m12m38m58m73m81m86m86m81m74m63m51m36m19m02l85l65
20270A1276l47l28l09k91k72k54k36k19k03j85j71j54j40j26j11r8q6p3o1n0m0l0k2j4pkKMOOL
20238G468joj4k2l2m4n4o7p9r1j02j12j22j31j37j43j46j50j51j51j51j49j46j44j39j36j32
20211D716j26j23j17j13j08j03r8r4r0q5q2p7p4p0o7o3o0n7n5n1m9m6m4m2m0l7l6l3l2l0k9k7
20178B558k5k3k3k1j9j9j7j6j4j4j2j2j0rrpoommljj%%KLLMNOPQQJ0J0J1J2J3J4J5J6J7J8J9J9
20132B503K1K2K4K4K5K7K8K9L1L1L4L4L7L8L9M1M3M5M6M9N1N2N5N8N9O3O5O7P1P4P6Q1Q3Q8R1
20096D205R5J00J04J09J14J19J25J30J37J43J51J57J65J73J82J91K00K10K21K32K43K56K69K82
20072H313K96L11L26L42L59L75L92M10M27M44M60M78M92N06N19N28N36N39N40N36N27N12M92
20048A8660M67M36L98L56L10K59K06J52R6M3rn9j03j45j80k12k38k61k78k92l03l12l17l20l22
20023A8032l23l21l18l14l09l01k93k83k70k58k42k27k10j91j72j51j31j09q8o5m2k0LK6M8P2
19996A3543R3J15J36J57J77J96K14K31K47K61K74K85K95L03L10L15L19L21L22L21L20L15L08
19973A9378L00K89K73K54K31K03J70J33R0M4nn9j12j68k22k74l24l69m10m46m75m99n18n30n38
19947A6416n40n40n34n26n16n03m88m73m57m40m22m05l88l71l54l38l22l07k93k79k65k53k41
19924G161k29k18k08j97j89j80j71j63j56j49j42j35j30j23j18j13j08j04r9r4r1q7q3q0p6p3
19898C645p1o7o5o2n9n8n5n2n1m8m7m5m3m1l9l8l7l5l3l2l1k9k8k7k6k5k3k2k1k1j9j8j7j6j6
19862B328j4j3j3j1j1j0rqpoonllkk%%KKLMNOPQRJ0J1J2J3J4J6J6J8K0K0K2K3K5K7K8L0L1L3L6
19815B656L7L9M2M4M6M9N1N5N7O0O3O7P0P4P8Q1Q6R0R4R9J04J08J13J18J22J27J32J36J40J43
19785E181J46J49J50J50J49J48J45J40J34J27J18J09R8Q6P4O2N0L9K8J8J0MknppokKPJ5K3L1M2
19750G406N1O4P4Q8J00J14J28J42J58J73J89K05K22K40K57K76K94L13L31L50L70L87M06M22M38
19725A3198M53M64M74M81M84M83M78M67M50M29M01L67L28K84K35J83J28P3J6l8r0j40j85k26
19700A9197k63k94l21l45l63l79l91m02m10m16m20m24m27m27m27m25m23m19m14m07m00l92l82
19677A0226l71l61l49l37l25l13l01k88k77k64k53k42k31k21k10k01j92j83j74j67j59j51j45
19653D511j38j33j26j20j16j10j06j01r7r2q9q6q1p9p5p3o9o7o5o2n9n8n5n3n1n0m8m6m4m3m2
19622B077m0l9l7l6l6l3l3l2l1l0k9k8k7k7k5k5k4k3k3k2k2k0k1j9j9j9j8j7j7j7j6j6j5j5j4
19586A212j4j4j3j3j2j3j1j2j1j1j1j0j0j0rrrrqqqqppppopoononnmnmmmmmllllkkljkjkj%j%%
19528H49%%JJJJKKKLLLMLNMNNOOPPPQRRRJ0J1J1J2J3J3J4J5J6J6J8J8K0K1K1K3K4K6K7K8L0L2
19479A381L3L6L7L9M1M4M6M9N1N4N7O0O4O6P0P4P7Q1Q5Q9R2R6R9J02J06J08J10J11J11J12J09
19447C690J07J03R8R1Q2P3O2M9L5K2Pqk3l8n0o4p4q5r3j00j06j10j13j14j15j15j13j12j09j06
19416B771j03j00r6r3q8q5q1p8p4p1o7o4o1n8n5n3n0m7m6m3m1l9l8l5l4l3l1k9k8k7k6k5k3k3
19382I26k2k1k0j9j8j8j7j6j6j5j4j4j4j3j2j2j2j1j1j1j0j0rj0rqrqqpqpppopoooononnnnnmn
19332D21mnmmmmmmlmmllmllllllllkllklklkklkkklkkkkkkkjkkkkjkkjkjkkjkjjkjkjjkjjkjjj
19259B52jkjjjjjjjjjkjjj%jjjjjjjjjj%jjjj%jjjj%jjj%jj%jj%jj%j%jj%j%jj%j%j%j%jj%j%%
19186A96j%j%j%j%j%j%%j%j%%j%%j%j%%j%%j%%j%%j%%%j%%j%%%j%%%j%%%j%%%%j%%%%j%%%%j%%
19112A73%%%j%%%%%%%j%%%%%%%%%j%%%%%%%%%%%%%%%%%%%%%%%%%%%%%%%%%%%%%%%%%J%%%%%%%%
19039A71%J%%%%%%J%%%%J%%%%J%%%%J%%%J%%J%%%J%%J%%J%%J%%J%J%%J%J%J%J%%J%J%JJ%J%J%J
18966A95J%J%JJ%JJ%JJJ%JJJ%JJJJJ%JJJJJJJJJJJJJJKJJJJJKJJKJJKJKJJKJKKJKKJKKKJKKKKK
18893B78KKKLKKKLKLKLKLLKLLLLLLLMLLMLMMLMMMMNMNMNMNNONNONOOOOPOPPPQPQQQQRRRJ0RJ0
18822F06J1J0J1J2J1J2J3J3J3J4J4J4J5J6J6J7J7J8J9J9K0K1K1K2K4K4K5K6K7K8K9L1L2L3L4L6
18786A324L8L9M1M3M5M7M9N1N4N7N9O2O5O8P2P5P9Q3Q8R1R7J02J06J13J18J24J30J37J44J51
18755C752J58J66J72J81J88J94K02K09K14K19K24K26K27K27K24K19K11K01J87J72J52J30J05P9
18731H239N1K1rl8o7r4j20j43j63j81j96k06k16k22k25k27k26k24k21k16k10k04j98j90j83j75
18704D157j68j61j53j46j39j33j26j20j14j09j03r8r3q9q4q0p6p3o9o6o2o0n7n4n2n0m7m5m3m1
18674A446m0l7l6l5l3l2l0k9k9k6k6k5k4k3k2k1k0k0j9j8j8j7j6j6j5j4j5j3j3j3j2j2j2j1j1
18638F93j0j0j0rrrrqqqpppppooooononnmnnmmmmmmmllmllllkllkklkkkkkkkjkjkjjkjjjjjj%j
18568D07j%j%j%%j%%%%%%%J%%J%%JJ%JJJ%JJJJKJJJKJKJKKKJKKKKKLKKLKLLKLLLLLLMLMLMMMMM
18495E14MMNMNMNNNONONOOOPOPOPPQPQQQQRRRRJ0J0J0J0J1J1J1J1J2J3J2J3J4J3J5J4J5J6J6J6
18442I71J7J8J8J9J9K0K1K1K2K3K4K4K6K6K7K8K9L1L1L3L3L6L6L8M0M1M2M5M6M9N0N3N5N7O0O2
18405B191O6O8P2P5P8Q2Q6R1R4R9J05J09J15J20J26J33J39J46J53J61J68J76J84J92K01K09K16
18378E655K25K32K40K45K51K54K58K58K57K54K48K40K28K14J97J78J55J31J05P9N1K4kk6m9o9
18351I833q6r9j11j19j23j25j23j20j14j07r7q6p4o1m8l3j8mJ2K6M1N4O9Q0R2J03J10J18J22
18322I112J25J24J21J14J06R2P7N9L7J3j2l8o6r3j19j45j67j88k07k22k35k44k52k56k58k58
18295G220k56k53k48k43k35k29k20k13k04j96j88j80j72j64j57j49j42j36j29j23j18j11j07
18272C047j01r7r3q8q4q0p6p4o9o7o4o1n9n6n4n1m9m8m5m4m2m0l9l7l6l4l4l2l0l0k9k8k6k6k5
18236A199k4k3k3k1k2k0k0j9j8j8j7j7j6j6j6j5j4j4j4j3j3j2j2j2j2j1j1j0j0j0j0j0rrqrqqq
18197F47qpqppopopoonoonnnnnnnmnmmmmmmlmmllmlllllkllklkkklkkkkkjkkjkjkjjkjjjjjjjj
18124C96%jj%j%j%%%j%%%%%%J%%J%J%J%JJJJJJJJJKJKJKKJKKKKKLKLKLLKLLMLLMLMMMMMNMNNNN
18050E15NONOOOPOPPQPQQRQRRJ0J0J0J0J1J1J2J2J2J3J4J3J5J5J5J6J7J7J8J8J9K0K1K2K2K3K5
18004A063K5K6K8K8L0L1L3L3L6L7L8M0M2M5M6M8N1N3N5N9O1O4O8P0P5P8Q2Q7R1R6J00J06J12
17971B937J17J23J30J36J42J50J57J65J72J79J87J94K00K08K13K19K22K26K26K27K23K19K11
17948G183K01J88J72J52J31J07P9N2K2pl7o6r4j19j42j62j81j95k07k16k22k26k27k27k25k21
17921E513k17k11k05j99j91j84j76j69j62j54j47j40j34j27j21j15j09j04r9r4r0q5q1p7p4p0
17895A978o6o4o0n8n5n3n0m8m6m4m1m1l8l7l5l4l3l1l0k9k7k7k5k5k4k2k2k1k1k0j9j8j8j7j6
17859G63j6j6j5j4j4j3j4j2j3j1j2j1j1j1j0j0j0rrrrqqqqpqpppopoooonononnnnmnmnmmmmmmm
17803C21mlmlmlllmllllklllklklklkklkkkkkkkkkkkkkjkkkjkkjkjkjkjkjjkjjkjjjkjjjjkjjj
17730A73jjjjjjjjjjjjjjjj%jjjjj%jjj%jjj%jjj%jj%jj%j%jj%j%jj%j%j%j%j%j%j%j%j%j%j%j
17657A22%j%%j%j%%j%j%%j%j%%j%%j%%j%%j%%j%%%j%%j%%%j%%j%%%j%%%j%%%j%%%%j%%%%j%%%%
17583A01j%%%%j%%%%%j%%%%%j%%%%%j%%%%%%%j%%%%%%%j%%%%%%%%%j%%%%%%%%%%j%%%%%%%%%%%
17510I2%%%%j%%%%%%%%%%%%%%%%%%%%%%%%%%%%%%%%%%%%%%%%%%%%%%%%%%%%%%%%%%%%%J%%%%%%
17436I2%%%%%%%%%J%%%%%%%%%%J%%%%%%%%J%%%%%%%J%%%%%%J%%%%%J%%%%%J%%%%%J%%%J%%%%J%
17362A02%%J%%%J%%%J%%%J%%%J%%J%%J%%J%%J%%J%%J%%J%J%%J%J%J%%J%J%J%J%J%J%J%J%JJ%J%
17288A29JJ%J%JJ%JJJ%JJ%JJJJ%JJJJJ%JJJJJJJJJJJJJJJKJJJJKJJJKJJKJKJKJKKJKKJKKKKKJK
17215B10LKKKKKLKLKLKLKLLLLLLLMLLMMLMMMMMNMNNMNONNOOOOOPOPPQQPRQRRRJ0J0J0J1J1J2J2
17149E49J2J3J4J4J4J5J6J7J7J8J8K0K0K1K2K3K4K6K6K8K9L0L2L3L6L6L9M1M2M5M7N0N2N5N7O1
17112A612O3O7P0P4P7Q0Q5Q8R2R6R9J02J06J08J11J13J14J14J14J11J09J05R8R2Q3P3O1M9L5K1
17082D222Ork4l8n1o3p5q4r3r9j04j09j11j12j13j12j11j09j06j04j00r7r3q9q6q2p8p4p2o7o5
17050A698o1n8n5n2n0m8m4m3m1l8l7l4l3l2l0k8k7k6k4k3k2k1k1j9j8j7j7j6j5j4j4j3j3j2j1
17015F71j1j0j0j0rqqqqpopoonnnnmnmlmllllkkljkkjjjjjj%%%%%%JJ%JJKJKJKKKLKLKLLMLLMM
16946E37MNMNMNONOOOOPOPQPQQRQRJ0RJ0J1J0J1J2J2J2J3J3J4J4J5J5J6J6J7J8J9J9J9K1K1K3
16898A046K3K4K5K6K7K8L0L0L2L4L4L7L8L9M2M3M5M8N0N2N4N7O0O3O6O9P3P6Q0Q5Q8R4R8J03
16863B819J08J14J20J26J33J39J46J53J60J68J75J82J90J98K04K10K16K21K25K27K28K27K23
16840F912K18K10J98J85J67J47J25J00P3M4J4j5m5p3j00j25j47j67j84j97k09k16k22k24k26
16814F243k25k22k18k13k08k01j94j87j79j72j65j57j49j43j36j29j23j17j10j05j00r5r0q5q1
16789B439p7p3p0o5o3n9n7n3n1m8m6m4m1m0l7l6l4l2l1k9k7k6k5k4k2k1k0j9j8j7j6j5j4j3j3
16753A163j1j1j0rqqponnmllkjj%JJKLLNNNPPQRJ0J1J1J3J3J5J5J7J7J9K1K1K3K4K6K7K9L1L2
16704A500L5L6L8M1M3M6M8N0N4N6O0O3O6P0P3P7Q1Q4Q9R2R6J00J04J07J09J12J15J15J16J15
16674C791J14J10J07J01R4Q5P5O4N2L8K4Roj9l4m7n8p0p8q7r3r7j01j04j04j04j03j01r9r6r2
16642C171q8q5q0p6p2o7o3n8n4n0m6m2l7l4l0k6k3j9j5j2rnjKNRJ3J6J9K3K7L1L4L9M2M7N0N5
16604B591N9O4O7P3P6Q1Q5R0R2R7R9J01J04J04J04J03J00R7R2Q5P7O8N7M5L1J7Lj1k7m0n4o5p8
16570D387q6r5j02j08j11j14j16j15j16j13j12j10j06j03r9r6r2q7q4q1p6p3o9o5o3n9n6n3n0
16541A777m8m5m3m0l8l6l4l2l1k9k7k5k4k3k1k0j9j7j7j5j5j3j2j2j0j0rqpoonmllkjj%JJKLMM
16495A081NNOPQRRJ0J1J1J3J3J4J5J6J7J8J9K1K1K2K4K5K7K7L0L1L2L4L6L8M0M1M4M7M8N2N4N6
16455B037O0O3O7O9P4P8Q1Q6R1R6J00J06J12J18J23J31J36J44J51J58J66J73J81J88J95K02K09
16428E395K14K19K22K25K26K24K21K15K07J95J82J63J44J21R6O9L9J1k0m8p8j04j28j51j71j87
16401G501k00k11k19k25k27k28k27k24k20k15k10k03j96j89j81j74j67j59j52j44j38j32j25
16378C135j19j13j07j03r7r2q8q4q0p6p2o8o6o2o0n6n4n2m9m8m5m3m1l9l8l6l5l3l2l0k9k8k7
16344A133k6k5k4k3k2k1k1k0j9j8j7j7j7j6j5j5j4j3j4j2j3j1j2j1j1j0j0j0rrqrqqpqpopoooo
16301E66nnnnnmnmmlmlmllklklkkkjkjkjj%jj%%%%%%JJJJJJKJKKLKLLLLMLMMNNNNNOOPOQPQQRR
16227F22RJ0J1J1J1J2J3J3J3J5J5J6J7J7J9J9K0K1K3K3K5K5K8K8L0L2L3L5L7L9M0M3M6M7N1N2
16191A521N6N9O1O5O8P2P5P9Q2Q7R0R3R7J01J04J07J09J11J12J13J12J11J08J03R9R1Q3P2O2M9
16160D152L5K2Oqk4l7n1o3p5q4r3j00j06j09j12j14j14j14j12j11j08j05j02r9r5r1q8q4q0p6
16130A860p3p0o6o3o0n8n4n2m9m6m5m2m1l8l7l4l4l1l1k8k8k6k5k4k3k2k1k0k0j8j8j7j6j6j5
16094E99j5j4j3j3j3j2j1j1j1j0j0j0rrrrqqpqpppooponononnnnmnmmnmmlmmlmlmlllllllkllk
16033B15lklkklkkkkkkkkkkkkjkkjkkjkjkjkjjkjjkjjjkjjjjjkjjjjjjjjjjjj%jjjjjj%jjjj%j
15960A14jj%jjj%jj%jj%j%jj%j%jj%j%j%j%jj%j%j%j%%j%j%j%j%j%%j%j%%j%j%%j%j%%j%%j%%j
15887G7%%j%%j%%j%%j%%j%%%j%%j%%%j%%%j%%%j%%%j%%%j%%%j%%%j%%%%j%%%%j%%%j%%%%j%%%%
15812E9%j%%%%j%%%%%j%%%%%j%%%%%j%%%%%j%%%%%%j%%%%%%j%%%%%%j%%%%%%%j%%%%%%%j%%%%%
15738D8%%j%%%%%%%%j%%%%%%%%j%%%%%%%%%j%%%%%%%%%j%%%%%%%%%%j%%%%%%%%%%%j%%%%%%%%%
15664D1%%j%%%%%%%%%%%%%j%%%%%%%%%%%%%j%%%%%%%%%%%%%%j%%%%%%%%%%%%%%%j%%%%%%%%%%%
15589C6%%%%%%j%%%%%%%%%%%%%%%%%%j%%%%%%%%%%%%%%%%%%%%j%%%%%%%%%%%%%%%%%%%%%%j%%%
15515C2%%%%%%%%%%%%%%%%%%%%%%j%%%%%%%%%%%%%%%%%%%%%%%%%%%j%%%%%%%%%%%%%%%%%%%%%%
15441C0%%%%%%%%%%%j%%%%%%%%%%%%%%%%%%%%%%%%%%%%%%%%%%%%%%j%%%%%%%%%%%%%%%%%%%%%%
15367B8%%%%%%%%%%%%%%%%%%%%%%%%j%%%%%%%%%%%%%%%%%%%%%%%%%%%%%%%%%%%%%%%%%%%%%%%%
15292B7%%%%%%%%%%%%%%%%j%%%%%%%%%%%%%%%%%%%%%%%%%%%%%%%%%%%%%%%%%%%%%%%%%%%%%%%%
15218B6%%%%%%%%%%%%%%%%%%%%%%%%%%%%%%%%%%%%%%%%%%%%%%%%%%%%%%%%%%%%%%%%%%%%%%%%%
15144B6%j%%%%%%%%%%%%%%%%%%%%%%%%%%%%%%%%%%%%%%%%%%%%%%%%%%%%%%%%%%%%%%%%%%%%J%%
15070B6%%%%%%%%%%%%%%%%%%%%%%%%%%%%%%%%%%%%%%%%%%%%%%%%%%%%%%%%%%%%%%%%%%%%%%%%%
14995B6%%%%%%%%%%%%%%%%%%%%%%%%%%%%%%%%%%%%%%%%%%%%%%%%%J%%%%%%%%%%%%%%%%%%%%%%%
14921B7%%%%%%%%%%%%%%%%%%%%%%%%%%%%%%%%%%%J%%%%%%%%%%%%%%%%%%%%%%%%%%%%%%%%%%%%%
14847B8%%%%%J%%%%%%%%%%%%%%%%%%%%%%%%%%%%%%%%%J%%%%%%%%%%%%%%%%%%%%%%%%%%%%J%%%%
14773C1%%%%%%%%%%%%%%%%%%%%J%%%%%%%%%%%%%%%%%%%%%J%%%%%%%%%%%%%%%%%%%J%%%%%%%%%%
14698C4%%%%%%%J%%%%%%%%%%%%%%%J%%%%%%%%%%%%%%J%%%%%%%%%%%%J%%%%%%%%%%%%J%%%%%%%%
14624C9%%%J%%%%%%%%%%J%%%%%%%%%J%%%%%%%%J%%%%%%%%J%%%%%%%%J%%%%%%%J%%%%%%%J%%%%%
14550D7%J%%%%%%J%%%%%J%%%%%J%%%%%J%%%%%J%%%%%J%%%%J%%%%J%%%%J%%%J%%%%J%%%J%%%J%%
14476F1%J%%%J%%%J%%J%%%J%%J%%J%%J%%J%%J%%J%%J%%J%J%%J%%J%J%J%%J%J%J%J%J%J%J%J%J%
14401H8J%J%JJ%J%JJ%JJ%JJ%JJ%JJ%JJJJ%JJJJ%JJJJJJJJJJJJJJJJJJJKJJJKJJJKJJKJKJKJKKJ
14327A58KKJKKKKKKKKKKKKLKKLKLKLLKLLLLLMLLMLMMLMMNMMNMNNNNONONOPOPOPQPQQQRQJ0RJ0
14257D51J0J1J1J1J2J2J2J4J3J5J4J6J6J7J7J8J9K0K1K1K3K3K5K6K7K8L0L1L3L4L6L8L9M2M4M6
14220A276M8N1N3N7N9O2O5O9P1P6P9Q3Q6R0R4R7J01J05J07J10J11J14J14J13J13J10J06J01R5
14191C816Q7P7O6N5M0K7J2kj8l2m6n8p0q1q9r7j02j07j11j12j13j13j11j10j08j05j02r9r5r1
14160B208q7q4q0p7p3o9o6o3o0n6n4n2m8m7m4m1m0l8l6l4l2l1k9k8k7k5k5k3k2k1k0j9j8j7j7
14125G05j6j5j4j4j4j2j3j1j1j1j0j0rrrqqqppopoonnomnmnmlmmllllklkkkkkkjkjjjjj%j%j%%
14064C76%%%J%J%JJJJJKJKJKKKKLKLKLLLLMLMMMMMMNNNNONOOOPOPQPQQRQRJ0RJ1J0J1J1J2J2J3
13998F75J3J4J5J4J6J6J7J8J8J9K0K1K1K3K4K4K6K7K9K9L2L2L4L6L8L9M1M4M5M8N0N3N6N8O1O5
13962A811O7P1P4P8Q2Q5R0R3R7J00J05J07J11J14J16J17J18J19J17J15J12J07J01R3Q4P4O1M9
13933D468L5K0Ork2l7m9o0p1p9q7r2r6r9j01j01j01r9r7r5r0q8q3p9p5p0o5o1n7n2m7m3l9l5l0
13898B320k6k2j8j4j0pkKNJ0J3J8K1K5L0L4L8M2M7N1N6O0O5O9P4P8Q3Q6R1R4R7R9J01J02J02
13862C814J00R9R4Q9Q3P5O5N3M2K9J4%j5k9m3n6o9q0q9r7j05j09j13j16j18j17j17j16j13j11
13832B944j08j04j01r7r4q9q6q2p8p5p1o7o5o1n8n5n3n0m7m6m2m1l9l7l5l4l1l1k8k8k6k5k4k2
13797A014k2k0k0j9j7j7j7j5j5j4j3j3j2j2j1j1j0rrrqqpppooonnmnmlmllklkjkjjjj%%%J%JKJ
13742F29KKKKLLLLMMMNNNNOOPPPPQQRRRJ0J1J1J1J2J2J3J4J4J4J6J6J7J7J9J9K0K1K2K3K4K5K6
13692A151K7K9L0L1L3L5L6L8M0M2M4M6M8N1N4N6N9O1O5O9P1P6P9Q3Q6R1R5R9J04J08J11J16J20
13659C284J23J26J29J31J32J32J32J29J26J22J16J08J00R0P8O6N4M0K7J5Kj0j9k9l6m1m6m9n0
13629D982m9m8m4m1l6l1k4j8j0mMJ1J7K5L0L6M1M5M8M9N0M8M6M2L6K8K0Rkj5k7m1n4o6p9q9j00
13592D789j09j16j22j26j30j31j32j32j31j29j26j23j20j15j12j08j03r9r5r1q7q3p9p5p2o8o5
13564A910o2n8n6n4n1m8m6m4m2m0l8l6l4l3l2l0k9k7k6k5k4k3k2k1k0j9j8j8j7j6j5j5j4j4j2
13529H31j3j2j1j1j0j0j0rqrpqppoooonnmnmlmlllkkkkjjjj%j%J%JJJKKKKLKMLMMMMNONOOPPPQ
13462G20QRRJ0J0J0J1J2J2J3J3J4J5J6J6J7J8J8K0K1K1K3K4K4K7K7K9L0L2L3L6L6L9M1M3M5M8
13425A550N0N2N6N8O1O5O7P1P5P8Q2Q6Q9R4R7J01J05J08J11J13J16J16J18J17J16J13J10J04R7
13395D176Q9Q0O8N7M3K8J5%j5k9m1n5o5p4q3q9r5r8j01j02j02j01r9r7r4r0q7q2p8p4o9o5o0n6
13361B555n1m7m2l8l4k9k6k1j7j4rojKOJ0J4J9K2K6L0L5L9M3M7N2N7O1O6P0P5P9Q3Q7R1R5R7R9
13322C525J00J02J00J00R6R2Q6P9P1O0M9L6K3Qok0l5m9o2p4q4r3j01j07j12j15j18j18j18j18
13291C197j16j13j11j08j04j00r7r3r0q5q2p7p5p1o7o4o2n8n5n3n0m8m6m3m1m0l7l6l4l3l1l0
13259A047k8k7k6k5k3k3k2k0k0j9j9j7j7j6j6j5j4j4j3j3j2j2j1j1j1j0rj0rrqqqqppopoooonn
13214D63nnnmnmmlmmllllllklkkkkkkjkjjjjjjj%j%%%%%%%J%JJ%JKJJKJKKKKLKLLLLLLMMMMNMN
13141D46NNOOOOPPPPQRQRRJ0J0J1J1J2J2J3J3J4J5J5J6J6J8J8J9K0K1K2K3K4K6K6K8L0L1L2L4
13097A091L6L8L9M2M4M6M9N2N4N6O0O3O6P0P2P7Q0Q4Q8R1R5R8J02J05J08J10J12J13J13J12J10
13066C476J07J03R6R0Q0P0N8M6L1J8Kj2k7m1n5o6p7q7r5j01j07j10j12j14j14j13j12j10j07
13036B617j04j01r8r3r1q6q3p9p5p2o8o5o2o0n6n3n1m8m6m4m2l9l8l6l4l3l1k9k9k7k6k4k4k2
13002G48k2k1k0j8j9j7j7j6j5j5j4j4j3j3j2j2j1j1j1j0j0rrrrqqqpppppooooononnnmnnmmmmm
12950B52mmmlmlllmlllklllklklkklkkkkkkkkkkkkjkkjkkjkjkjkjjkjjkjjjkjjjjjjjjjjjjjjj
12876A12jjjjjj%jjjjj%jjj%jj%jjj%jj%j%jj%j%jj%j%j%j%j%j%j%j%j%j%j%j%j%%j%j%%j%j%%
12803F9j%%j%j%%j%%j%%j%%j%%j%%%j%%j%%%j%%j%%%j%%%j%%%j%%%j%%%j%%%%j%%%j%%%%j%%%%
12729D9j%%%%j%%%%j%%%%%j%%%%%j%%%%%j%%%%%j%%%%%%j%%%%%%j%%%%%%j%%%%%%%j%%%%%%%j%
12655C7%%%%%%j%%%%%%%%j%%%%%%%%j%%%%%%%%%j%%%%%%%%%%j%%%%%%%%%%j%%%%%%%%%%%j%%%%
12580C0%%%%%%%j%%%%%%%%%%%%%j%%%%%%%%%%%%%j%%%%%%%%%%%%%%j%%%%%%%%%%%%%%%%j%%%%%
12506B5%%%%%%%%%%%j%%%%%%%%%%%%%%%%%%j%%%%%%%%%%%%%%%%%%%%j%%%%%%%%%%%%%%%%%%%%%
12432B2%j%%%%%%%%%%%%%%%%%%%%%%%j%%%%%%%%%%%%%%%%%%%%%%%%%%j%%%%%%%%%%%%%%%%%%%%
12358A9%%%%%%%%%j%%%%%%%%%%%%%%%%%%%%%%%%%%%%%%%%j%%%%%%%%%%%%%%%%%%%%%%%%%%%%%%
12283A7%%%%%%j%%%%%%%%%%%%%%%%%%%%%%%%%%%%%%%%%%%%%%%%j%%%%%%%%%%%%%%%%%%%%%%%%%
12209A5%%%%%%%%%%%%%%%%%%%%%j%%%%%%%%%%%%%%%%%%%%%%%%%%%%%%%%%%%%%%%%%%%%%%%%%%%
12135A4%j%%%%%%%%%%%%%%%%%%%%%%%%%%%%%%%%%%%%%%%%%%%%%%%%%%%%%%%%%%%%j%%%%%%%%%%
12061A2%%%%%%%%%%%%%%%%%%%%%%%%%%%%%%%%%%%%%%%%%%%%%%%%%%%%%%%%%%%%%j%%%%%%%%%%%
11986A1%%%%%%%%%%%%%%%%%%%%%%%%%%%%%%%%%%%%%%%%%%%%%%%%%%%%%%%%%%%%%%%%%%%%%%%%j
11912A0%%%%%%%%%%%%%%%%%%%%%%%%%%%%%%%%%%%%%%%%%%%%%%%%%%%%%%%%%%%%%%%%%%%%%%%%%
11838A0%%%%%%%%%%%%%%%%%%%%%%%%%%%%j%%%%%%%%%%%%%%%%%%%%%%%%%%%%%%%%%%%%%%%%%%%%
11764I%%%%%%%%%%%%%%%%%%%%%%%%%%%%%%%%%%%%%%%%%%%%%%%%%%%%%%%%%%%%%%%%%%%%%%%%%%
11688I%%%%%%j%%%%%%%%%%%%%%%%%%%%%%%%%%%%%%%%%%%%%%%%%%%%%%%%%%%%%%%%%%%%%%%%%%%
11613H%%%%%%%%%%%%%%%%%%%%%%%%%%%%%%%%%%%%%%%%%%%%%%%%%%%%%%%%%%%%%%%%%%%%%%%%%%
11538H%%%%%%%%%%%%%%%j%%%%%%%%%%%%%%%%%%%%%%%%%%%%%%%%%%%%%%%%%%%%%%%%%%%%%%%%%%
11462G%%%%%%%%%%%%%%%%%%%%%%%%%%%%%%%%%%%%%%%%%%%%%%%%%%%%%%%%%%%%%%%%%%%%%%%%%%
11387G%%%%%%%%%%%%%%%%%%%%%%%%%%%%%%%%%%%%%%%%%%%%%%%%%%%%%%%%%%%%%%%%%%%%%%%%j%
11312F%%%%%%%%%%%%%%%%%%%%%%%%%%%%%%%%%%%%%%%%%%%%%%%%%%%%%%%%%%%%%%%%%%%%%%%%%%
11237F%%%%%%%%%%%%%%%%%%%%%%%%%%%%%%%%%%%%%%%%%%%%%%%%%%%%%%%%%%%%%%%%%%%%%%%%%%
11161F%%%%%%%%%%%%%%%%%%%%%%%%%%%%%%%%%%%%%%%%%%%%%%%%%%%%%%%%%%%%%%%%%%%%%%%%%%
11086F%%%%%%%%%%%%%%%%%%%%%%%%%%%%%%%%%%%%%%%%%%%%%%%%%%%%%j%%%%%%%%%%%%%%%%%%%%
11011E%%%%%%%%%%%%%%%%%%%%%%%%%%%%%%%%%%%%%%%%%%%%%%%%%%%%%%%%%%%%%%%%%%%%%%%%%%
10935E%%%%%%%%%%%%%%%%%%%%%%%%%%%%%%%%%%%%%%%%%%%%%%%%%%%%%%%%%%%%%%%%%%%%%%%%%%
10860E%%%%%%%%%%%%%%%%%%%%%%%%%%%%%%%%%%%%%%%%%%%%%%%%%%%%%%%%%%%%%%%%%%%%%%%%%%
10785E%%%%%%%%%%%%%%%%%%%%%%%%%%%%%%%%%%%%%%%%%%%%%%%%%%%%%%%%%%%%%%%%%%%%%%%%%%
10710E%%%%%%%%%%%%%%%%%%%%%%%%%%%%%%%%%%%%%%%%%%%%%%%%%%%%%%%%%%%%%%%%%%%%%%%%%%
10634E%%%%%%j%%%%%%%%%%%%%%%%%%%%%%%%%%%%%%%%%%%%%%%%%%%%%%%%%%%%%%%%%%%%%%%%%%%
10559D%%%%%%%%%%%%%%%%%%%%%%%%%%%%%%%%%%%%%%%%%%%%%%%%%%%%%%%%%%%%%%%%%%%%%%%%%%
10484D%%%%%%%%%%%%%%%%%%%%%%%%%%%%%%%%%%%%%%%%%%%%%%%%%%%%%%%%%%%%%%%%%%%%%%%%%%
10409D%%%%%%%%%%%%%%%%%%%%%%%%%%%%%%%%%%%%%%%%%%%%%%%%%%%%%%%%%%%%%%%%%%%%%%%%%%
10333D%%%%%%%%%%%%%%%%%%%%%%%%%%%%%%%%%%%%%%%%%%%%%%%%%%%%%%%%%%%%%%%%%%%%%%%%%%
10258D%%%%%%%%%%%%%%%%%%%%%%%%%%%%%%%%%%%%%%%%%%%%%%%%%%%%%%%%%%%%%%%%%%%%%%%%%%
10183D%%%%%%%%%%%%%%%%%%%%%%%%%%%%%%%%%%%%%%%%%%%%%%%%%%%%%%%%%%%%%%%%%%%%%%%%%%
10107D%%%%%%%%%%%%%%%%%%%%%%%%%%%%%%%%%%%%%%%%%%%%%%%%%%%%%%%%%%%%%%%%%%%%%%%%%%
10032D%%%%%%%%%%%%%%%%%%%%%%%%%%%%%%j%%%%%%%%%%%%%%%%%%%%%%%%%%%%%%%%%%%%%%%%%%%
9957C%%%%%%%%%%%%%%%%%%%%%%%%%%%%%%%%%%%%%%%%%%%%%%%%%%%%%%%%%%%%%%%%%%%%%%%%%%%
9881C%%%%%%%%%%%%%%%%%%%%%%%%%%%%%%%%%%%%%%%%%%%%%%%%%%%%%%%%%%%%%%%%%%%%%%%%%%%
9804C%%%%%%%%%%%%%%%%%%%%%%%%%%%%%%%%%%%%%%%%%%%%%%%%%%%%%%%%%%%%%%%%%%%%%%%%%%%
9728C%%%%%%%%%%%%%%%%%%%%%%%%%%%%%%%%%%%%%%%%%%%%%%%%%%%%%%%%%%%%%%%%%%%%%%%%%%%
9652C%%%%%%%%%%%%%%%%%%%%%%%%%%%%%%%%%%%%%%%%%%%%%%%%%%%%%%%%%%%%%%%%%%%%%%%%%%%
9575C%%%%%%%%%%%%%%%%%%%%%%%%%%%%%%%%%%%%%%%%%%%%%%%%%%%%%%%%%%%%%%%%%%%%%%%%%%%
9499C%%%%%%%%%%%%%%%%%%%%%%%%%%%%%%%%%%%%%%%%%%%%%%%%%%%%%%%%%%%%%%%%%%%%%%%%%%%
9423C%%%%%%%%%%%%%%%%%%%%%%%%%%%%%%%%%%%%%%%%%%%%%%%%%%%%%%%%%%%%%%%%%%%%%%%%%%%
9347C%%%%%%%%%%%%%%%%%%%%%%%%%%%%%%%%%%%%%%%%%%%%%%%%%%%%%%%%%%%%%%%%%%%%%%%%%%%
9270C%%%%%%%%%%%%%%%%%%%%%%%%%%%%%%%%%%%%%%%%%%%%%%%%%%%%%%%%%%%%%%%%%%%%%%%%%%%
9194C%%%%%%%%%%%%%%%%%%%%%%%%%%%%%%%%%%%%%%%%%%%%%%%%%%%%%%%%%%%%%%%%%%%%%%%%%%%
9118C%%%%%%%%%%%%%%%%%%%%%%%%%%%%%%%%%%%%%%%%%%%%%%%%%%%%%%%%%%%%%%%%%%%%%%%%%%%
9041C%%%%%%%%%%%%%%%%%%%%%%%%%%%%%%%%%%%%%%%%%%%%%%%%%%%%%%%%%%%%%%%%%%%%%%%%%%%
8965C%%%%%%%%%%%%%%%%%%%%%%%%%%%%%%%%%%%%%%%%%%%%%%%%%%%%%%%%%%%j%%%%%%%%%%%%%%%
8889B%%%%%%%%%%%%%%%%%%%%%%%%%%%%%%%%%%%%%%%%%%%%%%%%%%%%%%%%%%%%%%%%%%%%%%%%%%%
8812B%%%%%%%%%%%%%%%%%%%%%%%%%%%%%%%%%%%%%%%%%%%%%%%%%%%%%%%%%%%%%%%%%%%%%%%%%%%
8736B%%%%%%%%%%%%%%%%%%%%%%%%%%%%%%%%%%%%%%%%%%%%%%%%%%%%%%%%%%%%%%%%%%%%%%%%%%%
8660B%%%%%%%%%%%%%%%%%%%%%%%%%%%%%%%%%%%%%%%%%%%%%%%%%%%%%%%%%%%%%%%%%%%%%%%%%%%
8584B%%%%%%%%%%%%%%%%%%%%%%%%%%%%%%%%%%%%%%%%%%%%%%%%%%%%%%%%%%%%%%%%%%%%%%%%%%%
8507B%%%%%%%%%%%%%%%%%%%%%%%%%%%%%%%%%%%%%%%%%%%%%%%%%%%%%%%%%%%%%%%%%%%%%%%%%%%
8431B%%%%%%%%%%%%%%%%%%%%%%%%%%%%%%%%%%%%%%%%%%%%%%%%%%%%%%%%%%%%%%%%%%%%%%%%%%%
8355B%%%%%%%%%%%%%%%%%%%%%%%%%%%%%%%%%%%%%%%%%%%%%%%%%%%%%%%%%%%%%%%%%%%%%%%%%%%
8278B%%%%%%%%%%%%%%%%%%%%%%%%%%%%%%%%%%%%%%%%%%%%%%%%%%%%%%%%%%%%%%%%%%%%%%%%%%%
8202B%%%%%%%%%%%%%%%%%%%%%%%%%%%%%%%%%%%%%%%%%%%%%%%%%%%%%%%%%%%%%%%%%%%%%%%%%%%
8126B%%%%%%%%%%%%%%%%%%%%%%%%%%%%%%%%%%%%%%%%%%%%%%%%%%%%%%%%%%%%%%%%%%%%%%%%%%%
8049B%%%%%%%%%%%%%%%%%%%%%%%%%%%%%%%%%%%%%%%%%%%%%%%%%%%%%%%%%%%%%%%%%%%%%%%%%%%
7973B%%%%%%%%%%%%%%%%%%%%%%%%%%%%%%%%%%%%%%%%%%%%%%%%%%%%%%%%%%%%%%%%%%%%%%%%%%%
7897B%%%%%%%%%%%%%%%%%%%%%%%%%%%%%%%%%%%%%%%%%%%%%%%%%%%%%%%%%%%%%%%%%%%%%%%%%%%
7821B%%%%%%%%%%%%%%%%%%%%%%%%%%%%%%%%%%%%%%%%%%%%%%%%%%%%%%%%%%%%%%%%%%%%%%%%%%%
7744B%%%%%%%%%%%%%%%%%%%%%%%%%%%%%%%%%%%%%%%%%%%%%%%%%%%%%%%%%%%%%%%%%%%%%%%%%%%
7668B%%%%%%%%%%%%%%%%%%%%%%%%%%%%%%%%%%%%%%%%%%%%%%%%%%%%%%%%%%%%%%%%%%%%%%%%%%%
7592B%%%%%%%%%%%%%%%%%%%%%%%%%%%%%%%%%%%%%%%%%%%%%%%%%%%%%%%%%%%%%%%%%%%%%%%%%%%
7515B%%%%%%%%%%%%%%%%%%%%%%%%%%%%%%%%%%%%%%%%%%%%%%%%%%%%%%%%%%%%%%%%%%%%%%%%%%%
7439B%%%%%%%%%%%%%%%%%%%%%%%%%%%%%%%%%%%%%%%%%%%%%%%%%%%%%%%%%%%%%%%%%%%%%%%%%%%
7363B%%%%%%%%%%%%%%%%%%%%%%%%%%%%%%%%%%%%%%%%%%%%%%%%%%%%%%%%%%%%%%%%%%%%%%%%%%%
7287B%%%%%%%%%%%%%%%%%%%%%%%%%%%%%%%%%%%%%%%%%%%%%%%%%%%%%%%%%%%%%%%%%%%%%%%%%%%
7210B%%%%%%%%%%%%%%%%%%%%%%%%%%%%%%%%%%%%%%%%%%%%%%%%%%%%%%%%%%%%%%%%%%%%%%%%%%%
7134B%%%%%%%%%%%%%%%%%%%%%%%%%%%%%%%%%%%%%%%%%%%%%%%%%%%%%%%%%%%%%%%%%%%%%%%%%%%
7058B%%%%%%%%%%%%%%%%%%%%%%%%%%%%%%%%%%%%%%%%%%%%%%%%%%%%%%%%%%%%%%%%%%%%%%%%%%%
6981B%%%%%%%%%%%%%%%%%%%%%%%%%%%%%%%%%%%%%%%%%%%%%%%%%%%%%%%%%%%%%%%%%%%%%%%%%%%
6905B%%%%%%%%%%%%%%%%%%%%%%%%%%%%%%%%%%%%%%%%%%%%%%%%%%%%%%%%%%%%%%%%%%%%%%%%%%%
6829B%%%%%%%%%%%%%%%%%%%%%%%%%%%%%%%%%%%%%%%%%%%%%%%%%%%%%%%%%%%%%%%%%%%%%%%%%%%
6752B%%%%%%%%%%%%%%%%%%%%%%%%%%%%%%%%%%%%%%%%%%%%%%%%%%%%%%%%%%%%%%%%%%%%%%%%%%%
6676B%%%%%%%%%%%%%%%%%%%%%%%%%%%%%%%%%%%%%%%%%%%%%%%%%%%%%%%%%%%%%%%%%%%%%%%%%%%
6600B%%%%%%%%%%%%%%%%%%%%%%%%%%%%%%%%%%%%%%%%%%%%%%%%%%%%%%%%%%%%%%%%%%j%%%%%%%%
6524A%%%%%%%%%%%%%%%%%%%%%%%%%%%%%%%%%%%%%%%%%%%%%%%%%%%%%%%%%%%%%%%%%%%%%%%%%%%
6447A%%%%%%%%%%%%%%%%%%%%%%%%%%%%%%%%%%%%%%%%%%%%%%%%%%%%%%%%%%%%%%%%%%%%%%%%%%%
6371A%%%%%%%%%%%%%%%%%%%%%%%%%%%%%%%%%%%%%%%%%%%%%%%%%%%%%%%%%%%%%%%%%%%%%%%%%%%
6295A%%%%%%%%%%%%%%%%%%%%%%%%%%%%%%%%%%%%%%%%%%%%%%%%%%%%%%%%%%%%%%%%%%%%%%%%%%%
6218A%%%%%%%%%%%%%%%%%%%%%%%%%%%%%%%%%%%%%%%%%%%%%%%%%%%%%%%%%%%%%%%%%%%%%%%%%%%
6142A%%%%%%%%%%%%%%%%%%%%%%%%%%%%%%%%%%%%%%%%%%%%%%%%%%%%%%%%%%%%%%%%%%%%%%%%%%%
6066A%%%%%%%%%%%%%%%%%%%%%%%%%%%%%%%%%%%%%%%%%%%%%%%%%%%%%%%%%%%%%%%%%%%%%%%%%%%
5990A%%%%%%%%%%%%%%%%%%%%%%%%%%%%%%%%%%%%%%%%%%%%%%%%%%%%%%%%%%%%%%%%%%%%%%%%%%%
5913A%%%%%%%%%%%%%%%%%%%%%%%%%%%%%%%%%%%%%%%%%%%%%%%%%%%%%%%%%%%%%%%%%%%%%%%%%%%
5837A%%%%%%%%%%%%%%%%%%%%%%%%%%%%%%%%%%%%%%%%%%%%%%%%%%%%%%%%%%%%%%%%%%%%%%%%%%%
5761A%%%%%%%%%%%%%%%%%%%%%%%%%%%%%%%%%%%%%%%%%%%%%%%%%%%%%%%%%%%%%%%%%%%%%%%%%%%
5684A%%%%%%%%%%%%%%%%%%%%%%%%%%%%%%%%%%%%%%%%%%%%%%%%%%%%%%%%%%%%%%%%%%%%%%%%%%%
5608A%%%%%%%%%%%%%%%%%%%%%%%%%%%%%%%%%%%%%%%%%%%%%%%%%%%%%%%%%%%%%%%%%%%%%%%%%%%
5532A%%%%%%%%%%%%%%%%%%%%%%%%%%%%%%%%%%%%%%%%%%%%%%%%%%%%%%%%%%%%%%%%%%%%%%%%%%%
5455A%%%%%%%%%%%%%%%%%%%%%%%%%%%%%%%%%%%%%%%%%%%%%%%%%%%%%%%%%%%%%%%%%%%%%%%%%%%
5379A%%%%%%%%%%%%%%%%%%%%%%%%%%%%%%%%%%%%%%%%%%%%%%%%%%%%%%%%%%%%%%%%%%%%%%%%%%%
5303A%%%%%%%%%%%%%%%%%%%%%%%%%%%%%%%%%%%%%%%%%%%%%%%%%%%%%%%%%%%%%%%%%%%%%%%%%%%
5227A%%%%%%%%%%%%%%%%%%%%%%%%%%%%%%%%%%%%%%%%%%%%%%%%%%%%%%%%%%%%%%%%%%%%%%%%%%%
5150A%%%%%%%%%%%%%%%%%%%%%%%%%%%%%%%%%%%%%%%%%%%%%%%%%%%%%%%%%%%%%%%%%%%%%%%%%%%
5074A%%%%%%%%%%%%%%%%%%%%%%%%%%%%%%%%%%%%%%%%%%%%%%%%%%%%%%%%%%%%%%%%%%%%%%%%%%%
4998A%%%%%%%%%%%%%%%%%%%%%%%%%%%%%%%%%%%%%%%%%%%%%%%%%%%%%%%%%%%%%%%%%%%%%%%%%%%
4921A%%%%%%%%%%%%%%%%%%%%%%%%%%%%%%%%%%%%%%%%%%%%%%%%%%%%%%%%%%%%%%%%%%%%%%%%%%%
4845A%%%%%%%%%%%%%%%%%%%%%%%%%%%%%%%%%%%%%%%%%%%%%%%%%%%%%%%%%%%%%%%%%%%%%%%%%%%
4769A%%%%%%%%%%%%%%%%%%%%%%%%%%%%%%%%%%%%%%%%%%%%%%%%%%%%%%%%%%%%%%%%%%%%%%%%%%%
4693A%%%%%%%%%%%%%%%%%%%%%%%%%%%%%%%%%%%%%%%%%%%%%%%%%%%%%%%%%%%%%%%%%%%%%%%%%%%
4616A%%%%%%%%%%%%%%%%%%%%%%%%%%%%%%%%%%%%%%%%%%%%%%%%%%%%%%%%%%%%%%%%%%%%%%%%%%%
4540A%%%%%%%%%%%%%%%%%%%%%%%%%%%%%%%%%%%%%%%%%%%%%%%%%%%%%%%%%%%%%%%%%%%%%%%%%%%
4464A%%%%%%%%%%%%%%%%%%%%%%%%%%%%%%%%%%%%%%%%%%%%%%%%%%%%%%%%%%%%%%%%%%%%%%%%%%%
4387A%%%%%%%%%%%%%%%%%%%%%%%%%%%%%%%%%%%%%%%%%%%%%%%%%%%%%%%%%%%%%%%%%%%%%%%%%%%
4311A%%%%%%%%%%%%%%%%%%%%%%%%%%%%%%%%%%%%%%%%%%%%%%%%%%%%%%%%%%%%%%%%%%%%%%%%%%%
4235A%%%%%%%%%%%%%%%%%%%%%%%%%%%%%%%%%%%%%%%%%%%%%%%%%%%%%%%%%%%%%%%%%%%%%%%%%%%
4158A%%%%%%%%%%%%%%%%%%%%%%%%%%%%%%%%%%%%%%%%%%%%%%%%%%%%%%%%%%%%%%%%%%%%%%%%%%%
4082A%%%%%%%%%%%%%%%%%%%%%%%%%%%%%%%%%%%%%%%%%%%%%%%%%%%%%%%%%%%%%%%%%%%%%%%%%%%
4006A%%%%%%%%%%%%%%%%%%%%%%%%%%%%%%%%%%%%%%%%%%%%%%%%%%%%%%%%%%%%%%%%%%%%%%%%%%%
3930A%%%%%%%%%%%%%%%%%%%%%%%%%%%%%%%%%%%%%%%%%%%%%%%%%%%%%%%%%%%%%%%%%%%%%%%%%%%
3853A%%%%%%%%%%%%%%%%%%%%%%%%%%%%%%%%%%%%%%%%%%%%%%%%%%%%%%%%%%%%%%%%%%%%%%%%%%%
3777A%%%%%%%%%%%%%%%%%%%%%%%%%%%%%%%%%%%%%%%%%%%%%%%%%%%%%%%%%%%%%%%%%%%%%%%%%%%
3701A%%%%%%%%%%%%%%%%%%%%%%%%%%%%%%%%%%%%%%%%%%%%%%%%%%%%%%%%%%%%%%%%%%%%%%%%%%%
3624A%%%%%%%%%%%%%%%%%%%%%%%%%%%%%%%%%%%%%%%%%%%%%%%%%%%%%%%%%%%%%%%%%%%%%%%%%%%
3548A%%%%%%%%%%%%%%%%%%%%%%%%%%%%%%%%%%%%%%%%%%%%%%%%%%%%%%%%%%%%%%%%%%%%%%%%%%%
3472A%%%%%%%%%%%%%%%%%%%%%%%%%%%%%%%%%%%%%%%%%%%%%%%%%%%%%%%%%%%%%%%%%%%%%%%%%%%
3395A%%%%%%%%%%%%%%%%%%%%%%%%%%%%%%%%%%%%%%%%%%%%%%%%%%%%%%%%%%%%%%%%%%%%%%%%%%%
3319A%%%%%%%%%%%%%%%%%%%%%%%%%%%%%%%%%%%%%%%%%%%%%%%%%%%%%%%%%%%%%%%%%%%%%%%%%%%
3243A%%%%%%%%%%%%%%%%%%%%%%%%%%%%%%%%%%%%%%%%%%%%%%%%%%%%%%%%%%%%%%%%%%%%%%%%%%%
3167A%%%%%%%%%%%%%%%%%%%%%%%%%%%%%%%%%%%%%%%%%%%%%%%%%%%%%%%%%%%%%%%%%%%%%%%%%%%
3090A%%%%%%%%%%%%%%%%%%%%%%%%%%%%%%%%%%%%%%%%%%%%%%%%%%%%%%%%%%%%%%%%%%%%%%%%%%%
3014A%%%%%%%%%%%%%%%%%%%%%%%%%%%%%%%%%%%%%%%%%%%%%%%%%%%%%%%%%%%%%%%%%%%%%%%%%%%
2938A%%%%%%%%%%%%%%%%%%%%%%%%%%%%%%%%%%%%%%%%%%%%%%%%%%%%%%%%%%%%%%%%%%%%%%%%%%%
2861A%%%%%%%%%%%%%%%%%%%%%%%%%%%%%%%%%%%%%%%%%%%%%%%%%%%%%%%%%%%%%%%%%%%%%%%%%%%
2785A%%%%%%%%%%%%%%%%%%%%%%%%%%%%%%%%%%%%%%%%%%%%%%%%%%%%%%%%%%%%%%%%%%%%%%%%%%%
2709A%%%%%%%%%%%%%%%%%%%%%%%%%%%%%%%%%%%%%%%%%%%%%%%%%%%%%%%%%%%%%%%%%%%%%%%%%%%
2633A%%%%%%%%%%%%%%%%%%%%%%%%%%%%%%%%%%%%%%%%%%%%%%%%%%%%%%%%%%%%%%%%%%%%%%%%%%%
2556A%%%%%%%%%%%%%%%%%%%%%%%%%%%%%%%%%%%%%%%%%%%%%%%%%%%%%%%%%%%%%%%%%%%%%%%%%%%
2480A%%%%%%%%%%%%%%%%%%%%%%%%%%%%%%%%%%%%%%%%%%%%%%%%%%%%%%%%%%%%%%%%%%%%%%%%%%%
2404A%%%%%%%%%%%%%%%%%%%%%%%%%%%%%%%%%%%%%%%%%%%%%%%%%%%%%%%%%%%%%%%%%%%%%%%%%%%
2327A%%%%%%%%%%%%%%%%%%%%%%%%%%%%%%%%%%%%%%%%%%%%%%%%%%%%%%%%%%%%%%%%%%%%%%%%%%%
2251A%%%%%%%%%%%%%%%%%%%%%%%%%%%%%%%%%%%%%%%%%%%%%%%%%%%%%%%%%%%%%%%%%%%%%%%%%%%
2175A%%%%%%%%%%%%%%%%%%%%%%%%%%%%%%%%%%%%%%%%%%%%%%%%%%%%%%%%%%%%%%%%%%%%%%%%%%%
2098A%%%%%%%%%%%%%%%%%%%%%%%%%%%%%%%%%%%%%%%%%%%%%%%%%%%%%%%%%%%%%%%%%%%%%%%%%%%
2022A%%%%%%%%%%%%%%%%%%%%%%%%%%%%%%%%%%%%%%%%%%%%%%%%%%%%%%%%%%%%%%%%%%%%%%%%%%%
1946A%%%%%%%%%%%%%%%%%%%%%%%%%%%%%%%%%%%%%%%%%%%%%%%%%%%%%%%%%%%%%%%%%%%%%%%%%%%
1870A%%%%%%%%%%%%%%%%%%%%%%%%%%%%%%%%%%%%%%%%%%%%%%%%%%%%%%%%%%%%%%%%%%%%%%%%%%%
1793A%%%%%%%%%%%%%%%%%%%%%%%%%%%%%%%%%%%%%%%%%%%%%%%%%%%%%%%%%%%%%%%%%%%%%%%%%%%
1717A%%%%%%%%%%%%%%%%%%%%%%%%%%%%%%%%%%%%%%%%%%%%%%%%%%%%%%%%%%%%%%%%%%%%%%%%%%%
1641A%%%%%%%%%%%%%%%%%%%%%%%%%%%%%%%%%%%%%%%%%%%%%%%%%%%%%%%%%%%%%%%%%%%%%%%%%%%
1564A%%%%%%%%%%%%%%%%%%%%%%%%%%%%%%%%%%%%%%%%%%%%%%%%%%%%%%%%%%%%%%%%%%%%%%%%%%%
1488A%%%%%%%%%%%%%%%%%%%%%%%%%%%%%%%%%%%%%%%%%%%%%%%%%%%%%%%%%%%%%%%%%%%%%%%%%%%
1412A%%%%%%%%%%%%%%%%%%%%%%%%%%%%%%%%%%%%%%%%%%%%%%%%%%%%%%%%%%%%%%%%%%%%%%%%%%%
1336A%%%%%%%%%%%%%%%%%%%%%%%%%%%%%%%%%%%%%%%%%%%%%%%%%%%%%%%%%%%%%%%%%%%%%%%%%%%
1259A%%%%%%%%%%%%%%%%%%%%%%%%%%%%%%%%%%%%%%%%%%%%%%%%%%%%%%%%%%%%%%%%%%%%%%%%%%%
1183A%%%%%%%%%%%%%%%%%%%%%%%%%%%%%%%%%%%%%%%%%%%%%%%%%%%%%%%%%%%%%%%%%%%%%%%%%%%
1107A%%%%%%%%%%%%%%%%%%%%%%%%%%%%%%%%%%%%%%%%%%%%%%%%%%%%%%%%%%%%%%%%%%%%%%%%%%%
1030A%%%%%%%%%%%%%%%%%%%%%%%%%%%%%%%%%%%%%%%%%%%%%%%%%%%%%%%%%%%%%%%%%%%%%%%%%%%
954A%%%%%%%%%%%%%%%%%%%%%%%%%%%%%%%%%%%%%%%%%%%%%%%%%%%%%%%%%%%%%%%%%%%%%%%%%%%%
877A%%%%%%%%%%%%%%%%%%%%%%%%%%%%%%%%%%%%%%%%%%%%%%%%%%%%%%%%%%%%%%%%%%%%%%%%%%%%
799A%%%%%%%%%%%%%%%%%%%%%%%%%%%%%%%%%%%%%%%%%%%%%%%%%%%%%%%%%%%%%%%%%%%%%%%%%%%%
722A%%%%%%%%%%%%%%%%%%%%%%%%%%%%%%%%%%%%%%%%%%%%%%%%%%%%%%%%%%%%%%%%%%%%%%%%%%%%
645A%%%%%%%%%%%%%%%%%%%%%%%%%%%%%%%%%%%%%%%%%%%%%%%%%%%%%%%%%%%%%%%%%%%%%%%%%%%%
567A%%%%%%%%%%%%%%%%%%%%%%%%%%%%%%%%%%%%%%%%%%%%%%%%%%%%%%%%%%%%%%%%%%%%%%%%%%%%
490A%%%%%%%%%%%%%%%%%%%%%%%%%%%%%%%%%%%%%%%%%%%%%%%%%%%%%%%%%%%%%%%%%%%%%%%%%%%%
413A%%%%%%%%%%%%%%%%%%%%%%%%%%%%%%%%%%%%%%%%%%%%%%%%%%%%%%%%%%%%%%%%%%%%%%%%%%%%
336A%%%%%%%%%%%%%%%%%%%%%%%%%%%%%%%%%%%%%%%%%%%%%%%%%%%%%%%%%%%%%%%%%%%%%%%%%%%%
258A%%%%%%%%%%%%%%%%%%%%%%%%%%%%%%%%%%%%%%%%%%%%%%%%%%%%%%%%%%%%%%%%%%%%%%%%%%%%
181A%%%%%%%%%%%%%%%%%%%%%%%%%%%%%%%%%%%%%%%%%%%%%%%%%%%%%%%%%%%%%%%%%%%%%%%%%%%%
104A%%%%%%%%%%%%%%%%%%%%%%%%%%%%%%%%%%%%%%%%%%%%%%%%%%%%%%%%%%%%%%%%%%%%%%%%%%%%
26A%%%%%%%%%%%%%%%%%%%%%%%%%%%%%%%%%%%%%%%%%%%%%%%%%%%%%%%%%%%%%%%%%%%%%%%%%%%%%
-52A%%%%%%%%%%%%%%%%%%%%%%%%%%%%%%%%%%%%%%%%%%%%%%%%%%%%%%%%%%%%%%%%%%%%%%%%%%%%
-129A%%%%%%%%%%%%%%%%%%%%%%%%%%%%%%%%%%%%%%%%%%%%%%%%%%%%%%%%%%%%%%%%%%%%%%%%%%%
-206A%%%%%%%%%%%%%%%%%%%%%%%%%%%%%%%%%%%%%%%%%%%%%%%%%%%%%%%%%%%%%%%%%%%%%%%%%%%
-282A%%%%%%%%%%%%%%%%%%%%%%%%%%%%%%%%%%%%%%%%%%%%%%%%%%%%%%%%%%%%%%%%%%%%%%%%%%%
-358A%%%%%%%%%%%%%%%%%%%%%%%%%%%%%%%%%%%%%%%%%%%%%%%%%%%%%%%%%%%%%%%%%%%%%%%%%%%
-435A%%%%%%%%%%%%%%%%%%%%%%%%%%%%%%%%%%%%%%%%%%%%%%%%%%%%%%%%%%%%%%%%%%%%%%%%%%%
-511A%%%%%%%%%%%%%%%%%%%%%%%%%%%%%%%%%%%%%%%%%%%%%%%%%%%%%%%%%%%%%%%%%%%%%%%%%%%
-587A%%%%%%%%%%%%%%%%%%%%%%%%%%%%%%%%%%%%%%%%%%%%%%%%%%%%%%%%%%%%%%%%%%%%%%%%%%%
-663A%%%%%%%%%%%%%%%%%%%%%%%%%%%%%%%%%%%%%%%%%%%%%%%%%%%%%%%%%%%%%%%%%%%%%%%%%%%
-740A%%%%%%%%%%%%%%%%%%%%%%%%%%%%%%%%%%%%%%%%%%%%%%%%%%%%%%%%%%%%%%%%%%%%%%%%%%%
-816A%%%%%%%%%%%%%%%%%%%%%%%%%%%%%%%%%%%%%%%%%%%%%%%%%%%%%%%%%%%%%%%%%%%%%%%%%%%
-892A%%%%%%%%%%%%%%%%%%%%%%%%%%%%%%%%%%%%%%%%%%%%%%%%%%%%%%%%%%%%%%%%%%%%%%%%%%%
-969A%%%%%%%%%%%%%%%%%%%%%%%%%%%%%%%%%%%%%%%%%%%%%%%%%%%%%%%%%%%%%%%%%%%%%%%%%%%
-1045A%%%%%%%%%%%%%%%%%%%%%%%%%%%%%%%%%%%%%%%%%%%%%%%%%%%%%%%%%%%%%%%%%%%%%%%%%%
-1120A%%%%%%%%%%%%%%%%%%%%%%%%%%%%%%%%%%%%%%%%%%%%%%%%%%%%%%%%%%%%%%%%%%%%%%%%%%
-1195A%%%%%%%%%%%%%%%%%%%%%%%%%%%%%%%%%%%%%%%%%%%%%%%%%%%%%%%%%%%%%%%%%%%%%%%%%%
-1271A%%%%%%%%%%%%%%%%%%%%%%%%%%%%%%%%%%%%%%%%%%%%%%%%%%%%%%%%%%%%%%%%%%%%%%%%%%
-1346A%%%%%%%%%%%%%%%%%%%%%%%%%%%%%%%%%%%%%%%%%%%%%%%%%%%%%%%%%%%%%%%%%%%%%%%%%%
-1421A%%%%%%%%%%%%%%%%%%%%%%%%%%%%%%%%%%%%%%%%%%%%%%%%%%%%%%%%%%%%%%%%%%%%%%%%%%
-1497A%%%%%%%%%%%%%%%%%%%%%%%%%%%%%%%%%%%%%%%%%%%%%%%%%%%%%%%%%%%%%%%%%%%%%%%%%%
-1572A%%%%%%%%%%%%%%%%%%%%%%%%%%%%%%%%%%%%%%%%%%%%%%%%%%%%%%%%%%%%%%%%%%%%%%%%%%
-1647A%%%%%%%%%%%%%%%%%%%%%%%%%%%%%%%%%%%%%%%%%%%%%%%%%%%%%%%%%%%%%%%%%%%%%%%%%%
-1722A%%%%%%%%%%%%%%%%%%%%%%%%%%%%%%%%%%%%%%%%%%%%%%%%%%%%%%%%%%%%%%%%%%%%%%%%%%
-1798A%%%%%%%%%%%%%%%%%%%%%%%%%%%%%%%%%%%%%%%%%%%%%%%%%%%%%%%%%%%%%%%%%%%%%%%%%%
-1873A%%%%%%%%%%%%%%%%%%%%%%%%%%%%%%%%%%%%%%%%%%%%%%%%%%%%%%%%%%%%%%%%%%%%%%%%%%
-1948A%%%%%%%%%%%%%%%%%%%%%%%%%%%%%%%%%%%%%%%%%%%%%%%%%%%%%%%%%%%%%%%%%%%%%%%%%%
-2023A%%%%%%%%%%%%%%%%%%%%%%%%%%%%%%%%%%%%%%%%%%%%%%%%%%%%%%%%%%%%%%%%%%%%%%%%%%
-2099A%%%%%%%%%%%%%%%%%%%%%%%%%%%%%%%%%%%%%%%%%%%%%%%%%%%%%%%%%%%%%%%%%%%%%%%%%%
-2174A%%%%%%%%%%%%%%%%%%%%%%%%%%%%%%%%%%%%%%%%%%%%%%%%%%%%%%%%%%%%%%%%%%%%%%%%%%
-2249A%%%%%%%%%%%%%%%%%%%%%%%%%%%%%%%%%%%%%%%%%%%%%%%%%%%%%%%%%%%%%%%%%%%%%%%%%%
-2325A%%%%%%%%%%%%%%%%%%%%%%%%%%%%%%%%%%%%%%%%%%%%%%%%%%%%%%%%%%%%%%%%%%%%%%%%%%
-2400A%%%%%%%%%%%%%%%%%%%%%%%%%%%%%%%%%%%%%%%%%%%%%%%%%%%%%%%%%%%%%%%%%%%%%%%%%%
-2475A%%%%%%%%%%%%%%%%%%%%%%%%%%%%%%%%%%%%%%%%%%%%%%%%%%%%%%%%%%%%%%%%%%%%%%%%%%
-2550A%%%%%%%%%j%%%%%%%%%%%%%%%%%%%%%%%%%%%%%%%%%%%%%%%%%%%%%%%%%%%%%%%%%%%%%%%%
-2626@%%%%%%%%%%%%%%%%%%%%%%%%%%%%%%%%%%%%%%%%%%%%%%%%%%%%%%%%%%%%%%%%%%%%%%%%%%
-2701@%%%%%%%%%%%%%%%%%%%%%%%%%%%%%%%%%%%%%%%%%%%%%%%%%%%%%%%%%%%%%%%%%%%%%%%%%%
-2776@%%%%%%%%%%%%%%%%%%%%%%%%%%%%%%%%%%%%%%%%%%%%%%%%%%%%%%%%%%%%%%%%%%%%%%%%%%
-2852@%%%%%%%%%%%%%%%%%%%%%%%%%%%%%%%%%%%%%%%%%%%%%%%%%%%%%%%%%%%%%%%%%%%%%%%%%%
-2927@%%%%%%%%%%%%%%%%%%%%%%%%%%%%%%%%%%%%%%%%%%%%%%%%%%%%%%%%%%%%%%%%%%%%%%%%%%
-3002@%%%%%%%%%%%%%%%%%%%%%%%%%%%%%%%%%%%%%%%%%%%%%%%%%%%%%%%%%%%%%%%%%%%%%%%%%%
-3077@%%%%%%%%%%%%%%%%%%%%%%%%%%%%%%%%%%%%%%%%%%%%%%%%%%%%%%%%%%%%%%%%%%%%%%%%%%
-3153@%%%%%%%%%%%%%%%%%%%%%%%%%%%%%%%%%%%%%%%%%%%%%%%%%%%%%%%%%%%%%%%%%%%%%%%%%%
-3228@%%%%%%%%%%%%%%%%%%%%%%%%%%%%%%%%%%%%%%%%%%%%%%%%%%%%%%%%%%%%%%%%%%%%%%%%%%
-3303@%%%%%%%%%%%%%%%%%%%%%%%%%%%%%%%%%%%%%%%%%%%%%%%%%%%%%%%%%%%%%%%%%%%%%%%%%%
-3378@%%%%%%%%%%%%%%%%%%%%%%%%%%%%%%%%%%%%%%%%%%%%%%%%%%%%%%%%%%%%%%%%%%%%%%%%%%
-3454@%%%%%%%%%%%%%%%%%%%%%%%%%%%%%%%%%%%%%%%%%%%%%%%%%%%%%%%%%%%%%%%%%%%%%%%%%%
-3529@%%%%%%%%%%%%%%%%%%%%%%%%%%%%%%%%%%%%%%%%%%%%%%%%%%%%%%%%%%%%%%%%%%%%%%%%%%
-3604@%%%%%%%%%%%%%%%%%%%%%%%%%%%%%%%%%%%%%%%%%%%%%%%%%%%%%%%%%%%%%%%%%%%%%%%%%%
-3680@%%%%%%%%%%%%%%%%%%%%%%%%%%%%%%%%%%%%%%%%%%%%%%%%%%%%%%%%%%%%%%%%%%%%%%%%%%
-3755@%%%%%%%%%%%%%%%%%%%%%%%%%%%%%%%%%%%%%%%%%%%%%%%%%%%%%%%%%%%%%%%%%%%%%%%%%%
-3830@%%%%%%%%%%%%%%%%%%%%%%%%%%%%%%%%%%%%%%%%%%%%%%%%%%%%%%%%%%%%%%%%%%%%%%%%%%
-3905@%%%%%%%%%%%%%%%%%%%%%%%%%%%%%%%%%%%%%%%%%%%%%%%%%%%%%%%%%%%%%%%%%%%%%%%%%%
-3981@%%%%%%%%%%%%%%%%%%%%%%%%%%%%%%%%%%%%%%%%%%%%%%%%%%%%%%%%%%%%%%%%%%%%%%%%%%
-4056@%%%%%%%%%%%%%%%%%%%%%%%%%%%%%%%%%%%%%%%%%%%%%%%%%%%%%%%%%%%%%%%%%%%%%%%%%%
-4131@%%%%%%%%%%%%%%%%%%%%%%%%%%%%%%%%%%%%%%%%%%%%%%%%%%%%%%%%%%%%%%%%%%%%%%%%%%
-4207@%%%%%%%%%%%%%%%%%%%%%%%%%%%%%%%%%%%%%%%%%%%%%%%%%%%%%%%%%%%%%%%%%%%%%%%%%%
-4282@%%%%%%%%%%%%%%%%%%%%%%%%%%%%%%%%%%%%%%%%%%%%%%%%%%%%%%%%%%%%%%%%%%%%%%%%%%
-4357@%%%%%%%%%%%%%%%%%%%%%%%%%%%%%%%%%%%%%%%%%%%%%%%%%%%%%%%%%%%%%%%%%%%%%%%%%%
-4432@%%%%%%%%%%%%%%%%%%%%%%%%%%%%%%%%%%%%%%%%%%%%%%%%%%%%%%%%%%%%%%%%%%%%%%%%%%
-4508@%%%%%%%%%%%%%%%%%%%%%%%%%%%%%%%%%%%%%%%%%%%%%%%%%%%%%%%%%%%%%%%%%%%%%%%%%%
-4583@%%%%%%%%%%%%%%%%%%%%%%%%%%%%%%%%%%%%%%%%%%%%%%%%%%%%%%%%%%%%%%%%%%%%%%%%%%
-4658@%%%%%%%%%%%%%%%%%%%%%%%%%%%%%%%%%%%%%%%%%%%%%%%%%%%%%%%%%%%%%%%%%%%%%%%%%%
-4733@%%%%%%%%%%%%%%%%%%%%%%%%%%%%%%%%%%%%%%%%%%%%%%%%%%%%%%%%%%%%%%%%%%%%%%%%%%
-4809@%%%%%%%%%%%%%%%%%%%%%%%%%%%%%%%%%%%%%%%%%%%%%%%%%%%%%%%%%%%%%%%%%%%%%%%%%%
-4884@%%%%%%%%%%%%%%%%%%%%%%%%%%%%%%%%%%%%%%%%%%%%%%%%%%%%%%%%%%%%%%%%%%%%%%%%%%
-4959@%%%%%%%%%%%%%%%%%%%%%%%%%%%%%%%%%%%%%%%%%%%%%%%%%%%%%%%%%%%%%%%%%%%%%%%%%%
-5035@%%%%%%%%%%%%%%%%%%%%%%%%%%%%%%%%%%%%%%%%%%%%%%%%%%%%%%%%%%%%%%%%%%%%%%%%%%
-5110@%%%%%%%%%%%%%%%%%%%%%%%%%%%%%%%%%%%%%%%%%%%%%%%%%%%%%%%%%%%%%%%%%%%%%%%%%%
-5185@%%%%%%%%%%%%%%%%%%%%%%%%%%%%%%%%%%%%%%%%%%%%%%%%%%%%%%%%%%%%%%%%%%%%%%%%%%
-5260@%%%%%%%%%%%%%%%%%%%%%%%%%%%%%%%%%%%%%%%%%%%%%%%%%%%%%%%%%%%%%%%%%%%%%%%%%%
-5336@%%%%%%%%%%%%%%%%%%%%%%%%%%%%%%%%%%%%%%%%%%%%%%%%%%%%%%%%%%%%%%%%%%%%%%%%%%
-5411@%%%%%%%%%%%%%%%%%%%%%%%%%%%%%%%%%%%%%%%%%%%%%%%%%%%%%%%%%%%%%%%%%%%%%%%%%%
-5486@%%%%%%%%%%%%%%%%%%%%%%%%%%%%%%%%%%%%%%%%%%%%%%%%%%%%%%%%%%%%%%%%%%%%%%%%%%
-5562@%%%%%%%%%%%%%%%%%%%%%%%%%%%%%%%%%%%%%%%%%%%%%%%%%%%%%%%%%%%%%%%%%%%%%%%%%%
-5637@%%%%%%%%%%%%%%%%%%%%%%%%%%%%%%%%%%%%%%%%%%%%%%%%%%%%%%%%%%%%%%%%%%%%%%%%%%
-5712@%%%%%%%%%%%%%%%%%%%%%%%%%%%%%%%%%%%%%%%%%%%%%%%%%%%%%%%%%%%%%%%%%%%%%%%%%%
-5787@%%%%%%%%%%%%%%%%%%%%%%%%%%%%%%%%%%%%%%%%%%%%%%%%%%%%%%%%%%%%%%%%%%%%%%%%%%
-5863@%%%%%%%%%%%%%%%%%%%%%%%%%%%%%%%%%%%%%%%%%%%%%%%%%%%%%%%%%%%%%%%%%%%%%%%%%%
-5938@%%%%%%%%%%%%%%%%%%%%%%%%%%%%%%%%%%%%%%%%%%%%%%%%%%%%%%%%%%%%%%%%%%%%%%%%%%
-6013@%%%%%%%%%%%%%%%%%%%%%%%%%%%%%%%%%%%%%%%%%%%%%%%%%%%%%%%%%%%%%%%%%%%%%%%%%%
-6088@%%%%%%%%%%%%%%%%%%%%%%%%%%%%%%%%%%%%%%%%%%%%%%%%%%%%%%%%%%%%%%%%%%%%%%%%%%
-6164@%%%%%%%%%%%%%%%%%%%%%%%%%%%%%%%%%%%%%%%%%%%%%%%%%%%%%%%%%%%%%%%%%%%%%%%%%%
-6239@%%%%%%%%%%%%%%%%%%%%%%%%%%%%%%%%%%%%%%%%%%%%%%%%%%%%%%%%%%%%%%%%%%%%%%%%%%
-6314@%%%%%%%%%%%%%%%%%%%%%%%%%%%%%%%%%%%%%%%%%%%%%%%%%%%%%%%%%%%%%%%%%%%%%%%%%%
-6390@%%%%%%%%%%%%%%%%%%%%%%%%%%%%%%%%%%%%%%%%%%%%%%%%%%%%%%%%%%%%%%%%%%%%%%%%%%
-6465@%%%%%%%%%%%%%%%%%%%%%%%%%%%%%%%%%%%%%%%%%%%%%%%%%%%%%%%%%%%%%%%%%%%%%%%%%%
-6540@%%%%%%%%%%%%%%%%%%%%%%%%%%%%%%%%%%%%%%%%%%%%%%%%%%%%%%%%%%%%%%%%%%%%%%%%%%
-6615@%%%%%%%%%%%%%%%%%%%%%%%%%%%%%%%%%%%%%%%%%%%%%%%%%%%%%%%%%%%%%%%%%%%%%%%%%%
-6691@%%%%%%%%%%%%%%%%%%%%%%%%%%%%%%%%%%%%%%%%%%%%%%%%%%%%%%%%%%%%%%%%%%%%%%%%%%
-6766@%%%%%%%%%%%%%%%%%%%%%%%%%%%%%%%%%%%%%%%%%%%%%%%%%%%%%%%%%%%%%%%%%%%%%%%%%%
-6841@%%%%%%%%%%%%%%%%%%%%%%%%%%%%%%%%%%%%%%%%%%%%%%%%%%%%%%%%%%%%%%%%%%%%%%%%%%
-6917@%%%%%%%%%%%%%%%%%%%%%%%%%%%%%%%%%%%%%%%%%%%%%%%%%%%%%%%%%%%%%%%%%%%%%%%%%%
-6992@%%%%%%%%%%%%%%%%%%%%%%%%%%%%%%%%%%%%%%%%%%%%%%%%%%%%%%%%%%%%%%%%%%%%%%%%%%
-7067@%%%%%%%%%%%%%%%%%%%%%%%%%%%%%%%%%%%%%%%%%%%%%%%%%%%%%%%%%%%%%%%%%%%%%%%%%%
-7142@%%%%%%%%%%%%%%%%%%%%%%%%%%%%%%%%%%%%%%%%%%%%%%%%%%%%%%%%%%%%%%%%%%%%%%%%%%
-7218@%%%%%%%%%%%%%%%%%%%%%%%%%%%%%%%%%%%%%%%%%%%%%%%%%%%%%%%%%%%%%%%%%%%%%%%%%%
-7293@%%%%%%%%%%%%%%%%%%%%%%%%%%%%%%%%%%%%%%%%%%%%%%%%%%%%%%%%%%%%%%%%%%%%%%%%%%
-7368@%%%%%%%%%%%%%%%%%%%%%%%%%%%%%%%%%%%%%%%%%%%%%%%%%%%%%%%%%%%%%%%%%%%%%%%%%%
-7443@%%%%%%%%%%%%%%%%%%%%%%%%%%%%%%%%%%%%%%%%%%%%%%%%%%%%%%%%%%%%%%%%%%%%%%%%%%
-7519@%%%%%%%%%%%%%%%%%%%%%%%%%%%%%%%%%%%%%%%%%%%%%%%%%%%%%%%%%%%%%%%%%%%%%%%%%%
-7594@%%%%%%%%%%%%%%%%%%%%%%%%%%%%%%%%%%%%%%%%%%%%%%%%%%%%%%%%%%%%%%%%%%%%%%%%%%
-7669@%%%%%%%%%%%%%%%%%%%%%%%%%%%%%%%%%%%%%%%%%%%%%%%%%%%%%%%%%%%%%%%%%%%%%%%%%%
-7745@%%%%%%%%%%%%%%%%%%%%%%%%%%%%%%%%%%%%%%%%%%%%%%%%%%%%%%%%%%%%%%%%%%%%%%%%%%
-7820@%%%%%%%%%%%%%%%%%%%%%%%%%%%%%%%%%%%%%%%%%%%%%%%%%%%%%%%%%%%%%%%%%%%%%%%%%%
-7895@%%%%%%%%%%%%%%%%%%%%%%%%%%%%%%%%%%%%%%%%%%%%%%%%%%%%%%%%%%%%%%%%%%%%%%%%%%
-7970@%%%%%%%%%%%%%%%%%%%%%%%%%%%%%%%%%%%%%%%%%%%%%%%%%%%%%%%%%%%%%%%%%%%%%%%%%%
-8046@%%%%%%%%%%%%%%%%%%%%%%%%%%%%%%%%%%%%%%%%%%%%%%%%%%%%%%%%%%%%%%%%%%%%%%%%%%
-8121@%%%%%%%%%%%%%%%%%%%%%%%%%%%%%%%%%%%%%%%%%%%%%%%%%%%%%%%%%%%%%%%%%%%%%%%%%%
-8196@%%%%%%%%%%%%%%%%%%%%%%%%%%%%%%%%%%%%%%%%%%%%%%%%%%%%%%%%%%%%%%%%%%%%%%%%%%
-8272@%%%%%%%%%%%%%%%%%%%%%%%%%%%%%%%%%%%%%%%%%%%%%%%%%%%%%%%%%%%%%%%%%%%%%%%%%%
-8347@%%%%%%%%%%%%%%%%%%%%%%%%%%%%%%%%%%%%%%%%%%%%%%%%%%%%%%%%%%%%%%%%%%%%%%%%%%
-8422@%%%%%%%%%%%%%%%%%%%%%%%%%%%%%%%%%%%%%%%%%%%%%%%%%%%%%%%%%%%%%%%%%%%%%%%%%%
-8497@%%%%%%%%%%%%%%%%%%%%%%%%%%%%%%%%%%%%%%%%%%%%%%%%%%%%%%%%%%%%%%%%%%%%%%%%%%
-8573@%%%%%%%%%%%%%%%%%%%%%%%%%%%%%%%%%%%%%%%%%%%%%%%%%%%%%%%%%%%%%%%%%%%%%%%%%%
-8648@%%%%%%%%%%%%%%%%%%%%%%%%%%%%%%%%%%%%%%%%%%%%%%%%%%%%%%%%%%%%%%%%%%%%%%%%%%
-8723@%%%%%%%%%%%%%%%%%%%%%%%%%%%%%%%%%%%%%%%%%%%%%%%%%%%%%%%%%%%%%%%%%%%%%%%%%%
-8798@%%%%%%%%%%%%%%%%%%%%%%%%%%%%%%%%%%%%%%%%%%%%%%%%%%%%%%%%%%%%%%%%%%%%%%%%%%
-8874@%%%%%%%%%%%%%%%%%%%%%%%%%%%%%%%%%%%%%%%%%%%%%%%%%%%%%%%%%%%%%%%%%%%%%%%%%%
-8949@%%%%%%%%%%%%%%%%%%%%%%%%%%%%%%%%%%%%%%%%%%%%%%%%%%%%%%%%%%%%%%%%%%%%%%%%%%
-9024@%%%%%%%%%%%%%%%%%%%%%%%%%%%%%%%%%%%%%%%%%%%%%%%%%%%%%%%%%%%%%%%%%%%%%%%%%%
-9100@%%%%%%%%%%%%%%%%%%%%%%%%%%%%%%%%%%%%%%%%%%%%%%%%%%%%%%%%%%%%%%%%%%%%%%%%%%
-9175@%%%%%%%%%%%%%%%%%%%%%%%%%%%%%%%%%%%%%%%%%%%%%%%%%%%%%%%%%%%%%%%%%%%%%%%%%%
-9250@%%%%%%%%%%%%%%%%%%%%%%%%%%%%%%%%%%%%%%%%%%%%%%%%%%%%%%%%%%%%%%%%%%%%%%%%%%
-9325@%%%%%%%%%%%%%%%%%%%%%%%%%%%%%%%%%%%%%%%%%%%%%%%%%%%%%%%%%%%%%%%%%%%%%%%%%%
-9401@%%%%%%%%%%%%%%%%%%%%%%%%%%%%%%%%%%%%%%%%%%%%%%%%%%%%%%%%%%%%%%%%%%%%%%%%%%
-9476@%%%%%%%%%%%%%%%%%%%%%%%%%%%%%%%%%%%%%%%%%%%%%%%
-9524@ $$ checkpoint
##END=
##TITLE=Predicted peak list
##JCAMP-DX=5.01
##ORIGIN=UNKNOWN
##OWNER=UNKNOWN
##DATA TYPE=NMR PEAK TABLE
##DATA CLASS=PEAK TABLE
##BLOCK_ID=3
##CROSS REFERENCE=NMR SPECTRUM:BLOCK_ID=2
##DATE=22/02/07
##TIME=18:18:11
##LONG DATE=2022/02/07 18:18:11 
##.OBSERVE FREQUENCY=100
##.OBSERVE NUCLEUS=1H
##NPOINTS=82
##XUNITS=PPM
##YUNITS=ARBITRARY UNITS
##PEAK TABLE=(XY..XY)
(7.750000, 0.125073875)
(7.764000, 0.125073875)
(7.769000, 0.125073875)
(7.783000, 0.125073875)
(7.837000, 0.125073875)
(7.851000, 0.125073875)
(7.856000, 0.125073875)
(7.870000, 0.125073875)
(7.530500, 0.125073875)
(7.535500, 0.125073875)
(7.577500, 0.125073875)
(7.582500, 0.125073875)
(7.617500, 0.125073875)
(7.622500, 0.125073875)
(7.664500, 0.125073875)
(7.669500, 0.125073875)
(9.309500, 0.25014775)
(9.323500, 0.25014775)
(9.356500, 0.25014775)
(9.370500, 0.25014775)
(6.135500, 0.5002955)
(6.244500, 0.5002955)
(4.551000, 0.125073875)
(4.583000, 0.125073875)
(4.604000, 0.25014775)
(4.636000, 0.25014775)
(4.657000, 0.125073875)
(4.689000, 0.125073875)
(4.138500, 0.25014775)
(4.191500, 0.25014775)
(4.208500, 0.25014775)
(4.261500, 0.25014775)
(4.138500, 0.25014775)
(4.191500, 0.25014775)
(4.208500, 0.25014775)
(4.261500, 0.25014775)
(2.741500, 0.125073875)
(2.794500, 0.125073875)
(2.811500, 0.125073875)
(2.864500, 0.125073875)
(2.855500, 0.125073875)
(2.908500, 0.125073875)
(2.925500, 0.125073875)
(2.978500, 0.125073875)
(4.081500, 0.125073875)
(4.134500, 0.125073875)
(4.151500, 0.125073875)
(4.204500, 0.125073875)
(4.195500, 0.125073875)
(4.248500, 0.125073875)
(4.265500, 0.125073875)
(4.318500, 0.125073875)
(3.393000, 0.125073875)
(3.446000, 0.25014775)
(3.499000, 0.125073875)
(3.481000, 0.125073875)
(3.534000, 0.25014775)
(3.587000, 0.125073875)
(6.086000, 0.5002955)
(6.154000, 0.5002955)
(8.490000, 1.000591)
(8.140000, 1.000591)
(4.297000, 0.25014775)
(4.365000, 0.25014775)
(4.375000, 0.25014775)
(4.443000, 0.25014775)
(3.767000, 0.25014775)
(3.845000, 0.25014775)
(3.855000, 0.25014775)
(3.933000, 0.25014775)
(4.331000, 0.25014775)
(4.363000, 0.25014775)
(4.377000, 0.25014775)
(4.409000, 0.25014775)
(4.672500, 0.25014775)
(4.718500, 0.25014775)
(4.781500, 0.25014775)
(4.827500, 0.25014775)
(9.328000, 0.25014775)
(9.333000, 0.25014775)
(9.347000, 0.25014775)
(9.352000, 0.25014775)
##END=
##TITLE=Predicted assignments
##JCAMP-DX=5.01
##ORIGIN=UNKNOWN
##OWNER=UNKNOWN
##DATA TYPE=NMR PEAK ASSIGNMENTS
##DATA CLASS=PEAK ASSIGNMENTS
##BLOCK_ID=4
##CROSS REFERENCE=STRUCTURE:BLOCK_ID=1
##DATE=22/02/07
##TIME=18:18:11
##LONG DATE=2022/02/07 18:18:11 
##.OBSERVE FREQUENCY=100
##.OBSERVE NUCLEUS=1H
##NPOINTS=82
##XUNITS=PPM
##PEAK ASSIGNMENTS=(XMA)
(7.810000, <ddd>, <47>)
(7.810000, <ddd>, <47>)
(7.810000, <ddd>, <47>)
(7.810000, <ddd>, <47>)
(7.810000, <ddd>, <47>)
(7.810000, <ddd>, <47>)
(7.810000, <ddd>, <47>)
(7.810000, <ddd>, <47>)
(7.600000, <ddd>, <48>)
(7.600000, <ddd>, <48>)
(7.600000, <ddd>, <48>)
(7.600000, <ddd>, <48>)
(7.600000, <ddd>, <48>)
(7.600000, <ddd>, <48>)
(7.600000, <ddd>, <48>)
(7.600000, <ddd>, <48>)
(9.340000, <dd>, <49>)
(9.340000, <dd>, <49>)
(9.340000, <dd>, <49>)
(9.340000, <dd>, <49>)
(6.190000, <d>, <50>)
(6.190000, <d>, <50>)
(4.620000, <td>, <51>)
(4.620000, <td>, <51>)
(4.620000, <td>, <51>)
(4.620000, <td>, <51>)
(4.620000, <td>, <51>)
(4.620000, <td>, <51>)
(4.200000, <dd>, <52>)
(4.200000, <dd>, <52>)
(4.200000, <dd>, <52>)
(4.200000, <dd>, <52>)
(4.200000, <dd>, <53>)
(4.200000, <dd>, <53>)
(4.200000, <dd>, <53>)
(4.200000, <dd>, <53>)
(2.860000, <ddd>, <55>)
(2.860000, <ddd>, <55>)
(2.860000, <ddd>, <55>)
(2.860000, <ddd>, <55>)
(2.860000, <ddd>, <55>)
(2.860000, <ddd>, <55>)
(2.860000, <ddd>, <55>)
(2.860000, <ddd>, <55>)
(4.200000, <ddd>, <56>)
(4.200000, <ddd>, <56>)
(4.200000, <ddd>, <56>)
(4.200000, <ddd>, <56>)
(4.200000, <ddd>, <56>)
(4.200000, <ddd>, <56>)
(4.200000, <ddd>, <56>)
(4.200000, <ddd>, <56>)
(3.490000, <dt>, <57>)
(3.490000, <dt>, <57>)
(3.490000, <dt>, <57>)
(3.490000, <dt>, <57>)
(3.490000, <dt>, <57>)
(3.490000, <dt>, <57>)
(6.120000, <d>, <58>)
(6.120000, <d>, <58>)
(8.490000, <s>, <59>)
(8.140000, <s>, <62>)
(4.370000, <dd>, <63>)
(4.370000, <dd>, <63>)
(4.370000, <dd>, <63>)
(4.370000, <dd>, <63>)
(3.850000, <dd>, <65>)
(3.850000, <dd>, <65>)
(3.850000, <dd>, <65>)
(3.850000, <dd>, <65>)
(4.370000, <dd>, <67>)
(4.370000, <dd>, <67>)
(4.370000, <dd>, <67>)
(4.370000, <dd>, <67>)
(4.750000, <dd>, <69>)
(4.750000, <dd>, <69>)
(4.750000, <dd>, <69>)
(4.750000, <dd>, <69>)
(9.340000, <dd>, <71>)
(9.340000, <dd>, <71>)
(9.340000, <dd>, <71>)
(9.340000, <dd>, <71>)
##END=
##END=
