##TITLE=HMDB0001206, Simulated spectrum from predictions
##JCAMP-DX=4.24
##ORIGIN=NP-MRD
##OWNER=NP-MRD
##DATA TYPE=LINK
##DATE=22/02/07
##TIME=18:05:14
##LONG DATE=2022/02/07 18:05:14 
##TITLE=Acetyl-CoA
##JCAMP-CS=3.7
##ORIGIN=UNKNOWN
##OWNER=UNKNOWN
##DATE=22/02/07
##TIME=18:05:14
##BLOCK_ID=1
##CROSS REFERENCE=NMR PEAK ASSIGNMENTS:BLOCK_ID=4
##LONG DATE=2022/02/07 18:05:14 
##MOLFORM=C23 H38 N7 O17 P3 S
##ATOMLIST=
1 C 0
2 C 0
3 O 0
4 S 0
5 C 0
6 C 0
7 N 0
8 C 0
9 O 0
10 C 0
11 C 0
12 N 0
13 C 0
14 O 0
15 C 0
16 O 0
17 C 0
18 C 0
19 C 0
20 C 0
21 O 0
22 P 0
23 O 0
24 O 0
25 O 0
26 P 0
27 O 0
28 O 0
29 O 0
30 C 0
31 C 0
32 O 0
33 C 0
34 N 0
35 C 0
36 N 0
37 C 0
38 C 0
39 N 0
40 N 0
41 C 0
42 N 0
43 C 0
44 C 0
45 O 0
46 C 0
47 O 0
48 P 0
49 O 0
50 O 0
51 O 0
52 H 0
53 H 0
54 H 0
55 H 0
56 H 0
57 H 0
58 H 0
59 H 0
60 H 0
61 H 0
62 H 0
63 H 0
64 H 0
65 H 0
66 H 0
67 H 0
68 H 0
69 H 0
70 H 0
71 H 0
72 H 0
73 H 0
74 H 0
75 H 0
76 H 0
77 H 0
78 H 0
79 H 0
80 H 0
81 H 0
82 H 0
83 H 0
84 H 0
85 H 0
86 H 0
87 H 0
88 H 0
89 H 0
##BONDLIST=
1 2 S
2 3 D
2 4 S
4 5 S
5 6 S
6 7 S
7 8 S
8 9 D
8 10 S
10 11 S
11 12 S
12 13 S
13 14 D
13 15 S
15 16 S
15 17 S
17 18 S
17 19 S
17 20 S
20 21 S
21 22 S
22 23 D
22 24 S
22 25 S
25 26 S
26 27 D
26 28 S
26 29 S
29 30 S
30 31 S
31 32 S
32 33 S
33 34 S
34 35 S
35 36 D
36 37 S
37 38 D
38 39 S
38 40 S
40 41 D
41 42 S
42 43 D
33 44 S
44 45 S
44 46 S
46 47 S
47 48 S
48 49 D
48 50 S
48 51 S
46 31 S
43 34 S
43 37 S
1 52 S
1 53 S
1 54 S
5 55 S
5 56 S
6 57 S
6 58 S
7 59 S
10 60 S
10 61 S
11 62 S
11 63 S
12 64 S
15 65 S
16 66 S
18 67 S
18 68 S
18 69 S
19 70 S
19 71 S
19 72 S
20 73 S
20 74 S
24 75 S
28 76 S
30 77 S
30 78 S
31 79 S
33 80 S
35 81 S
39 82 S
39 83 S
41 84 S
44 85 S
45 86 S
46 87 S
50 88 S
51 89 S
##STEREOCENTER=
15 M 0
22 P 0
26 P 0
31 P 0
33 P 0
44 M 0
46 M 0
##$MOLFILE=HMDB0001206
     RDKit          3D
Acetyl-CoA
 89 91  0  0  0  0  0  0  0  0999 V2000
   11.5647    0.2166    0.0112 C   0  0  0  0  0  0  0  0  0  0  0  0
   12.3766   -1.0204    0.0739 C   0  0  0  0  0  0  0  0  0  0  0  0
   13.6150   -0.8189    0.1624 O   0  0  0  0  0  0  0  0  0  0  0  0
   11.8218   -2.6646    0.0400 S   0  0  0  0  0  0  0  0  0  0  0  0
   10.1049   -3.0216    0.0368 C   0  0  0  0  0  0  0  0  0  0  0  0
    9.3475   -2.7605    1.2881 C   0  0  0  0  0  0  0  0  0  0  0  0
    9.1833   -1.4211    1.7256 N   0  0  0  0  0  0  0  0  0  0  0  0
    8.4459   -0.4828    0.9490 C   0  0  0  0  0  0  0  0  0  0  0  0
    7.9546   -0.8570   -0.1379 O   0  0  0  0  0  0  0  0  0  0  0  0
    8.2538    0.9002    1.4050 C   0  0  0  0  0  0  0  0  0  0  0  0
    7.4409    1.6602    0.3667 C   0  0  0  0  0  0  0  0  0  0  0  0
    6.1468    1.0226    0.1948 N   0  0  0  0  0  0  0  0  0  0  0  0
    5.1683    1.5065   -0.7021 C   0  0  0  0  0  0  0  0  0  0  0  0
    5.5067    2.5551   -1.3604 O   0  0  0  0  0  0  0  0  0  0  0  0
    3.8493    0.9313   -0.9347 C   0  0  2  0  0  0  0  0  0  0  0  0
    3.1941    1.6419   -1.9456 O   0  0  0  0  0  0  0  0  0  0  0  0
    2.9343    0.8772    0.2424 C   0  0  0  0  0  0  0  0  0  0  0  0
    3.4308    0.0707    1.4094 C   0  0  0  0  0  0  0  0  0  0  0  0
    2.7235    2.2993    0.7848 C   0  0  0  0  0  0  0  0  0  0  0  0
    1.5572    0.3557   -0.1214 C   0  0  0  0  0  0  0  0  0  0  0  0
    0.9270    1.1350   -1.0623 O   0  0  0  0  0  0  0  0  0  0  0  0
   -0.5971    0.4172   -1.3543 P   0  0  0  0  0  5  0  0  0  0  0  0
   -0.9844    0.8289   -2.7764 O   0  0  0  0  0  0  0  0  0  0  0  0
   -0.5114   -1.2537   -1.3326 O   0  0  0  0  0  0  0  0  0  0  0  0
   -1.7688    1.0362   -0.3197 O   0  0  0  0  0  0  0  0  0  0  0  0
   -2.0375    0.0882    1.0294 P   0  0  0  0  0  5  0  0  0  0  0  0
   -1.3824   -1.2892    0.8829 O   0  0  0  0  0  0  0  0  0  0  0  0
   -1.2418    0.8318    2.3501 O   0  0  0  0  0  0  0  0  0  0  0  0
   -3.6528   -0.1701    1.3584 O   0  0  0  0  0  0  0  0  0  0  0  0
   -4.4974    0.5072    0.4823 C   0  0  0  0  0  0  0  0  0  0  0  0
   -5.9512    0.2592    0.7984 C   0  0  1  0  0  0  0  0  0  0  0  0
   -6.7141    0.9608   -0.1096 O   0  0  0  0  0  0  0  0  0  0  0  0
   -7.8514    0.2098   -0.3733 C   0  0  1  0  0  0  0  0  0  0  0  0
   -8.4519    0.6675   -1.5904 N   0  0  0  0  0  0  0  0  0  0  0  0
   -7.8741    0.7633   -2.7988 C   0  0  0  0  0  0  0  0  0  0  0  0
   -8.7459    1.2336   -3.7039 N   0  0  0  0  0  0  0  0  0  0  0  0
   -9.9159    1.4458   -3.0592 C   0  0  0  0  0  0  0  0  0  0  0  0
  -11.1217    1.9191   -3.5253 C   0  0  0  0  0  0  0  0  0  0  0  0
  -11.2752    2.2756   -4.8987 N   0  0  0  0  0  0  0  0  0  0  0  0
  -12.1183    2.0215   -2.6285 N   0  0  0  0  0  0  0  0  0  0  0  0
  -11.9378    1.6763   -1.3415 C   0  0  0  0  0  0  0  0  0  0  0  0
  -10.7624    1.2139   -0.8831 N   0  0  0  0  0  0  0  0  0  0  0  0
   -9.7296    1.0906   -1.7355 C   0  0  0  0  0  0  0  0  0  0  0  0
   -7.2563   -1.1891   -0.5052 C   0  0  2  0  0  0  0  0  0  0  0  0
   -8.2306   -2.1559   -0.3956 O   0  0  0  0  0  0  0  0  0  0  0  0
   -6.3244   -1.1865    0.7146 C   0  0  2  0  0  0  0  0  0  0  0  0
   -7.0214   -1.5195    1.8753 O   0  0  0  0  0  0  0  0  0  0  0  0
   -6.3595   -2.8062    2.7050 P   0  0  0  0  0  5  0  0  0  0  0  0
   -5.5384   -2.2409    3.8664 O   0  0  0  0  0  0  0  0  0  0  0  0
   -5.3857   -3.7884    1.7510 O   0  0  0  0  0  0  0  0  0  0  0  0
   -7.6250   -3.6912    3.4017 O   0  0  0  0  0  0  0  0  0  0  0  0
   10.7156    0.0489   -0.6766 H   0  0  0  0  0  0  0  0  0  0  0  0
   11.1660    0.4638    1.0037 H   0  0  0  0  0  0  0  0  0  0  0  0
   12.1826    1.0875   -0.3552 H   0  0  0  0  0  0  0  0  0  0  0  0
    9.6167   -2.3614   -0.7640 H   0  0  0  0  0  0  0  0  0  0  0  0
    9.8768   -4.0962   -0.2498 H   0  0  0  0  0  0  0  0  0  0  0  0
    9.8331   -3.3733    2.1174 H   0  0  0  0  0  0  0  0  0  0  0  0
    8.3301   -3.2687    1.1443 H   0  0  0  0  0  0  0  0  0  0  0  0
    9.6043   -1.1035    2.6297 H   0  0  0  0  0  0  0  0  0  0  0  0
    7.6435    0.9089    2.3644 H   0  0  0  0  0  0  0  0  0  0  0  0
    9.1687    1.4650    1.6251 H   0  0  0  0  0  0  0  0  0  0  0  0
    7.9987    1.7079   -0.5741 H   0  0  0  0  0  0  0  0  0  0  0  0
    7.2316    2.6635    0.8121 H   0  0  0  0  0  0  0  0  0  0  0  0
    5.9242    0.1686    0.7492 H   0  0  0  0  0  0  0  0  0  0  0  0
    3.9746   -0.1030   -1.3204 H   0  0  0  0  0  0  0  0  0  0  0  0
    3.5804    2.5200   -2.1197 H   0  0  0  0  0  0  0  0  0  0  0  0
    4.0509    0.6569    2.1199 H   0  0  0  0  0  0  0  0  0  0  0  0
    2.5079   -0.1798    2.0206 H   0  0  0  0  0  0  0  0  0  0  0  0
    3.8410   -0.9136    1.1393 H   0  0  0  0  0  0  0  0  0  0  0  0
    1.9359    2.2143    1.5386 H   0  0  0  0  0  0  0  0  0  0  0  0
    3.6765    2.6746    1.2100 H   0  0  0  0  0  0  0  0  0  0  0  0
    2.4371    2.9593   -0.0683 H   0  0  0  0  0  0  0  0  0  0  0  0
    1.7252   -0.6426   -0.5851 H   0  0  0  0  0  0  0  0  0  0  0  0
    0.9588    0.3188    0.7868 H   0  0  0  0  0  0  0  0  0  0  0  0
   -0.1346   -1.5681   -2.2101 H   0  0  0  0  0  0  0  0  0  0  0  0
   -1.7594    1.5683    2.7142 H   0  0  0  0  0  0  0  0  0  0  0  0
   -4.2988    0.0888   -0.5288 H   0  0  0  0  0  0  0  0  0  0  0  0
   -4.2629    1.5881    0.4204 H   0  0  0  0  0  0  0  0  0  0  0  0
   -6.1552    0.6790    1.8043 H   0  0  0  0  0  0  0  0  0  0  0  0
   -8.5177    0.2485    0.4921 H   0  0  0  0  0  0  0  0  0  0  0  0
   -6.8433    0.4905   -2.9852 H   0  0  0  0  0  0  0  0  0  0  0  0
  -10.8137    1.6544   -5.6003 H   0  0  0  0  0  0  0  0  0  0  0  0
  -11.8225    3.1190   -5.2074 H   0  0  0  0  0  0  0  0  0  0  0  0
  -12.7867    1.7826   -0.6621 H   0  0  0  0  0  0  0  0  0  0  0  0
   -6.6209   -1.2812   -1.3883 H   0  0  0  0  0  0  0  0  0  0  0  0
   -7.8538   -2.9778    0.0286 H   0  0  0  0  0  0  0  0  0  0  0  0
   -5.4479   -1.8396    0.5483 H   0  0  0  0  0  0  0  0  0  0  0  0
   -5.1922   -4.6173    2.2372 H   0  0  0  0  0  0  0  0  0  0  0  0
   -8.1534   -3.0324    3.9337 H   0  0  0  0  0  0  0  0  0  0  0  0
  1  2  1  0
  2  3  2  0
  2  4  1  0
  4  5  1  0
  5  6  1  0
  6  7  1  0
  7  8  1  0
  8  9  2  0
  8 10  1  0
 10 11  1  0
 11 12  1  0
 12 13  1  0
 13 14  2  0
 13 15  1  0
 15 16  1  0
 15 17  1  0
 17 18  1  0
 17 19  1  0
 17 20  1  0
 20 21  1  0
 21 22  1  0
 22 23  2  0
 22 24  1  0
 22 25  1  0
 25 26  1  0
 26 27  2  0
 26 28  1  0
 26 29  1  0
 29 30  1  0
 30 31  1  0
 31 32  1  0
 32 33  1  0
 33 34  1  0
 34 35  1  0
 35 36  2  0
 36 37  1  0
 37 38  2  0
 38 39  1  0
 38 40  1  0
 40 41  2  0
 41 42  1  0
 42 43  2  0
 33 44  1  0
 44 45  1  0
 44 46  1  0
 46 47  1  0
 47 48  1  0
 48 49  2  0
 48 50  1  0
 48 51  1  0
 46 31  1  0
 43 34  1  0
 43 37  1  0
  1 52  1  0
  1 53  1  0
  1 54  1  0
  5 55  1  0
  5 56  1  0
  6 57  1  0
  6 58  1  0
  7 59  1  0
 10 60  1  0
 10 61  1  0
 11 62  1  0
 11 63  1  0
 12 64  1  0
 15 65  1  6
 16 66  1  0
 18 67  1  0
 18 68  1  0
 18 69  1  0
 19 70  1  0
 19 71  1  0
 19 72  1  0
 20 73  1  0
 20 74  1  0
 24 75  1  0
 28 76  1  0
 30 77  1  0
 30 78  1  0
 31 79  1  1
 33 80  1  1
 35 81  1  0
 39 82  1  0
 39 83  1  0
 41 84  1  0
 44 85  1  6
 45 86  1  0
 46 87  1  6
 50 88  1  0
 51 89  1  0
M  END

##END=
##TITLE=Predicted spectrum
##JCAMP-DX=5.01
##ORIGIN=UNKNOWN
##OWNER=UNKNOWN
##DATA TYPE=NMR SPECTRUM
##BLOCK_ID=2
##CROSS REFERENCE=NMR PEAK TABLE:BLOCK_ID=3
##DATE=22/02/07
##TIME=18:05:14
##LONG DATE=2022/02/07 18:05:14 
##.OBSERVE FREQUENCY=100
##.OBSERVE NUCLEUS=1H
##.SHIFT REFERENCE=INTERNAL,nan,56172.86,0
##XUNITS=PPM
##FIRSTX=12.0
##LASTX=-2.0
##MINX=-2.0
##MAXX=12.0
##XFACTOR=0.0002099999999991553
##NPOINTS=65536
##YUNITS=ARBITRARY UNITS
##FIRSTY=1.212135e-05
##LASTY=3.588067e-05
##MINY=1.212135e-05
##MAXY=5.999601
##YFACTOR=0.00018309887997070224
##XYDATA=(X++(Y..Y)), XYDATA $$ DIF
57143@%%%%%%%%%%%%%%%%%%%%%%%%%%%%%%%%%%%%%%%%%%%%%%%%%%%%%%%%%%%%%%%%%%%%%%%%%%
57068@%%%%%%%%%%%%%%%%%%%%%%%%%%%%%%%%%%%%%%%%%%%%%%%%%%%%%%%%%%%%%%%%%%%%%%%%%%
56992@%%%%%%%%%%%%%%%%%%%%%%%%%%%%%%%%%%%%%%%%%%%%%%%%%%%%%%%%%%%%%%%%%%%%%%%%%%
56917@%%%%%%%%%%%%%%%%%%%%%%%%%%%%%%%%%%%%%%%%%%%%%%%%%%%%%%%%%%%%%%%%%%%%%%%%%%
56842@%%%%%%%%%%%%%%%%%%%%%%%%%%%%%%%%%%%%%%%%%%%%%%%%%%%%%%%%%%%%%%%%%%%%%%%%%%
56766@%%%%%%%%%%%%%%%%%%%%%%%%%%%%%%%%%%%%%%%%%%%%%%%%%%%%%%%%%%%%%%%%%%%%%%%%%%
56691@%%%%%%%%%%%%%%%%%%%%%%%%%%%%%%%%%%%%%%%%%%%%%%%%%%%%%%%%%%%%%%%%%%%%%%%%%%
56616@%%%%%%%%%%%%%%%%%%%%%%%%%%%%%%%%%%%%%%%%%%%%%%%%%%%%%%%%%%%%%%%%%%%%%%%%%%
56541@%%%%%%%%%%%%%%%%%%%%%%%%%%%%%%%%%%%%%%%%%%%%%%%%%%%%%%%%%%%%%%%%%%%%%%%%%%
56465@%%%%%%%%%%%%%%%%%%%%%%%%%%%%%%%%%%%%%%%%%%%%%%%%%%%%%%%%%%%%%%%%%%%%%%%%%%
56390@%%%%%%%%%%%%%%%%%%%%%%%%%%%%%%%%%%%%%%%%%%%%%%%%%%%%%%%%%%%%%%%%%%%%%%%%%%
56315@%%%%%%%%%%%%%%%%%%%%%%%%%%%%%%%%%%%%%%%%%%%%%%%%%%%%%%%%%%%%%%%%%%%%%%%%%%
56240@%%%%%%%%%%%%%%%%%%%%%%%%%%%%%%%%%%%%%%%%%%%%%%%%%%%%%%%%%%%%%%%%%%%%%%%%%%
56164@%%%%%%%%%%%%%%%%%%%%%%%%%%%%%%%%%%%%%%%%%%%%%%%%%%%%%%%%%%%%%%%%%%%%%%%%%%
56089@%%%%%%%%%%%%%%%%%%%%%%%%%%%%%%%%%%%%%%%%%%%%%%%%%%%%%%%%%%%%%%%%%%%%%%%%%%
56014@%%%%%%%%%%%%%%%%%%%%%%%%%%%%%%%%%%%%%%%%%%%%%%%%%%%%%%%%%%%%%%%%%%%%%%%%%%
55938@%%%%%%%%%%%%%%%%%%%%%%%%%%%%%%%%%%%%%%%%%%%%%%%%%%%%%%%%%%%%%%%%%%%%%%%%%%
55863@%%%%%%%%%%%%%%%%%%%%%%%%%%%%%%%%%%%%%%%%%%%%%%%%%%%%%%%%%%%%%%%%%%%%%%%%%%
55788@%%%%%%%%%%%%%%%%%%%%%%%%%%%%%%%%%%%%%%%%%%%%%%%%%%%%%%%%%%%%%%%%%%%%%%%%%%
55713@%%%%%%%%%%%%%%%%%%%%%%%%%%%%%%%%%%%%%%%%%%%%%%%%%%%%%%%%%%%%%%%%%%%%%%%%%%
55637@%%%%%%%%%%%%%%%%%%%%%%%%%%%%%%%%%%%%%%%%%%%%%%%%%%%%%%%%%%%%%%%%%%%%%%%%%%
55562@%%%%%%%%%%%%%%%%%%%%%%%%%%%%%%%%%%%%%%%%%%%%%%%%%%%%%%%%%%%%%%%%%%%%%%%%%%
55487@%%%%%%%%%%%%%%%%%%%%%%%%%%%%%%%%%%%%%%%%%%%%%%%%%%%%%%%%%%%%%%%%%%%%%%%%%%
55411@%%%%%%%%%%%%%%%%%%%%%%%%%%%%%%%%%%%%%%%%%%%%%%%%%%%%%%%%%%%%%%%%%%%%%%%%%%
55336@%%%%%%%%%%%%%%%%%%%%%%%%%%%%%%%%%%%%%%%%%%%%%%%%%%%%%%%%%%%%%%%%%%%%%%%%%%
55261@%%%%%%%%%%%%%%%%%%%%%%%%%%%%%%%%%%%%%%%%%%%%%%%%%%%%%%%%%%%%%%%%%%%%%%%%%%
55186@%%%%%%%%%%%%%%%%%%%%%%%%%%%%%%%%%%%%%%%%%%%%%%%%%%%%%%%%%%%%%%%%%%%%%%%%%%
55110@%%%%%%%%%%%%%%%%%%%%%%%%%%%%%%%%%%%%%%%%%%%%%%%%%%%%%%%%%%%%%%%%%%%%%%%%%%
55035@%%%%%%%%%%%%%%%%%%%%%%%%%%%%%%%%%%%%%%%%%%%%%%%%%%%%%%%%%%%%%%%%%%%%%%%%%%
54960@%%%%%%%%%%%%%%%%%%%%%%%%%%%%%%%%%%%%%%%%%%%%%%%%%%%%%%%%%%%%%%%%%%%%%%%%%%
54885@%%%%%%%%%%%%%%%%%%%%%%%%%%%%%%%%%%%%%%%%%%%%%%%%%%%%%%%%%%%%%%%%%%%%%%%%%%
54809@%%%%%%%%%%%%%%%%%%%%%%%%%%%%%%%%%%%%%%%%%%%%%%%%%%%%%%%%%%%%%%%%%%%%%%%%%%
54734@%%%%%%%%%%%%%%%%%%%%%%%%%%%%%%%%%%%%%%%%%%%%%%%%%%%%%%%%%%%%%%%%%%%%%%%%%%
54659@%%%%%%%%%%%%%%%%%%%%%%%%%%%%%%%%%%%%%%%%%%%%%%%%%%%%%%%%%%%%%%%%%%%%%%%%%%
54583@%%%%%%%%%%%%%%%%%%%%%%%%%%%%%%%%%%%%%%%%%%%%%%%%%%%%%%%%%%%%%%%%%%%%%%%%%%
54508@%%%%%%%%%%%%%%%%%%%%%%%%%%%%%%%%%%%%%%%%%%%%%%%%%%%%%%%%%%%%%%%%%%%%%%%%%%
54433@%%%%%%%%%%%%%%%%%%%%%%%%%%%%%%%%%%%%%%%%%%%%%%%%%%%%%%%%%%%%%%%%%%%%%%%%%%
54358@%%%%%%%%%%%%%%%%%%%%%%%%%%%%%%%%%%%%%%%%%%%%%%%%%%%%%%%%%%%%%%%%%%%%%%%%%%
54282@%%%%%%%%%%%%%%%%%%%%%%%%%%%%%%%%%%%%%%%%%%%%%%%%%%%%%%%%%%%%%%%%%%%%%%%%%%
54207@%%%%%%%%%%%%%%%%%%%%%%%%%%%%%%%%%%%%%%%%%%%%%%%%%%%%%%%%%%%%%%%%%%%%%%%%%%
54132@%%%%%%%%%%%%%%%%%%%%%%%%%%%%%%%%%%%%%%%%%%%%%%%%%%%%%%%%%%%%%%%%%%%%%%%%%%
54056@%%%%%%%%%%%%%%%%%%%%%%%%%%%%%%%%%%%%%%%%%%%%%%%%%%%%%%%%%%%%%%%%%%%%%%%%%%
53981@%%%%%%%%%%%%%%%%%%%%%%%%%%%%%%%%%%%%%%%%%%%%%%%%%%%%%%%%%%%%%%%%%%%%%%%%%%
53906@%%%%%%%%%%%%%%%%%%%%%%%%%%%%%%%%%%%%%%%%%%%%%%%%%%%%%%%%%%%%%%%%%%%%%%%%%%
53831@%%%%%%%%%%%%%%%%%%%%%%%%%%%%%%%%%%%%%%%%%%%%%%%%%%%%%%%%%%%%%%%%%%%%%%%%%%
53755@%%%%%%%%%%%%%%%%%%%%%%%%%%%%%%%%%%%%%%%%%%%%%%%%%%%%%%%%%%%%%%%%%%%%%%%%%%
53680@%%%%%%%%%%%%%%%%%%%%%%%%%%%%%%%%%%%%%%%%%%%%%%%%%%%%%%%%%%%%%%%%%%%%%%%%%%
53605@%%%%%%%%%%%%%%%%%%%%%%%%%%%%%%%%%%%%%%%%%%%%%%%%%%%%%%%%%%%%%%%%%%%%%%%%%%
53530@%%%%%%%%%%%%%%%%%%%%%%%%%%%%%%%%%%%%%%%%%%%%%%%%%%%%%%%%%%%%%%%%%%%%%%%%%%
53454@%%%%%%%%%%%%%%%%%%%%%%%%%%%%%%%%%%%%%%%%%%%%%%%%%%%%%%%%%%%%%%%%%%%%%%%%%%
53379@%%%%%%%%%%%%%%%%%%%%%%%%%%%%%%%%%%%%%%%%%%%%%%%%%%%%%%%%%%%%%%%%%%%%%%%%%%
53304@%%%%%%%%%%%%%%%%%%%%%%%%%%%%%%%%%%%%%%%%%%%%%%%%%%%%%%%%%%%%%%%%%%%%%%%%%%
53228@%%%%%%%%%%%%%%%%%%%%%%%%%%%%%%%%%%%%%%%%%%%%%%%%%%%%%%%%%%%%%%%%%%%%%%%%%%
53153@%%%%%%%%%%%%%%%%%%%%%%%%%%%%%%%%%%%%%%%%%%%%%%%%%%%%%%%%%%%%%%%%%%%%%%%%%%
53078@%%%%%%%%%%%%%%%%%%%%%%%%%%%%%%%%%%%%%%%%%%%%%%%%%%%%%%%%%%%%%%%%%%%%%%%%%%
53003@%%%%%%%%%%%%%%%%%%%%%%%%%%%%%%%%%%%%%%%%%%%%%%%%%%%%%%%%%%%%%%%%%%%%%%%%%%
52927@%%%%%%%%%%%%%%%%%%%%%%%%%%%%%%%%%%%%%%%%%%%%%%%%%%%%%%%%%%%%%%%%%%%%%%%%%%
52852@%%%%%%%%%%%%%%%%%%%%%%%%%%%%%%%%%%%%%%%%%%%%%%%%%%%%%%%%%%%%%%%%%%%%%%%%%%
52777@%%%%%%%%%%%%%%%%%%%%%%%%%%%%%%%%%%%%%%%%%%%%%%%%%%%%%%%%%%%%%%%%%%%%%%%%%%
52701@%%%%%%%%%%%%%%%%%%%%%%%%%%%%%%%%%%%%%%%%%%%%%%%%%%%%%%%%%%%%%%%%%%%%%%%%%%
52626@%%%%%%%%%%%%%%%%%%%%%%%%%%%%%%%%%%%%%%%%%%%%%%%%%%%%%%%%%%%%%%%%%%%%%%%%%%
52551@%%%%%%%%%%%%%%%%%%%%%%%%%%%%%%%%%%%%%%%%%%%%%%%%%%%%%%%%%%%%%%%%%%%%%%%%%%
52476@%%%%%%%%%%%%%%%%%%%%%%%%%%%%%%%%%%%%%%%%%%%%%%%%%%%%%%%%%%%%%%%%%%%%%%%%%%
52400@%%%%%%%%%%%%%%%%%%%%%%%%%%%%%%%%%%%%%%%%%%%%%%%%%%%%%%%%%%%%%%%%%%%%%%%%%%
52325@%%%%%%%%%%%%%%%%%%%%%%%%%%%%%%%%%%%%%%%%%%%%%%%%%%%%%%%%%%%%%%%%%%%%%%%%%%
52250@%%%%%%%%%%%%%%%%%%%%%%%%%%%%%%%%%%%%%%%%%%%%%%%%%%%%%%%%%%%%%%%%%%%%%%%%%%
52175@%%%%%%%%%%%%%%%%%%%%%%%%%%%%%%%%%%%%%%%%%%%%%%%%%%%%%%%%%%%%%%%%%%%%%%%%%%
52099@%%%%%%%%%%%%%%%%%%%%%%%%%%%%%%%%%%%%%%%%%%%%%%%%%%%%%%%%%%%%%%%%%%%%%%%%%%
52024@%%%%%%%%%%%%%%%%%%%%%%%%%%%%%%%%%%%%%%%%%%%%%%%%%%%%%%%%%%%%%%%%%%%%%%%%%%
51949@%%%%%%%%%%%%%%%%%%%%%%%%%%%%%%%%%%%%%%%%%%%%%%%%%%%%%%%%%%%%%%%%%%%%%%%%%%
51873@%%%%%%%%%%%%%%%%%%%%%%%%%%%%%%%%%%%%%%%%%%%%%%%%%%%%%%%%%%%%%%%%%%%%%%%%%%
51798@%%%%%%%%%%%%%%%%%%%%%%%%%%%%%%%%%%%%%%%%%%%%%%%%%%%%%%%%%%%%%%%%%%%%%%%%%%
51723@%%%%%%%%%%%%%%%%%%%%%%%%%%%%%%%%%%%%%%%%%%%%%%%%%%%%%%%%%%%%%%%%%%%%%%%%%%
51648@%%%%%%%%%%%%%%%%%%%%%%%%%%%%%%%%%%%%%%%%%%%%%%%%%%%%%%%%%%%%%%%%%%%%%%%%%%
51572@%%%%%%%%%%%%%%%%%%%%%%%%%%%%%%%%%%%%%%%%%%%%%%%%%%%%%%%%%%%%%%%%%%%%%%%%%%
51497@%%%%%%%%%%%%%%%%%%%%%%%%%%%%%%%%%%%%%%%%%%%%%%%%%%%%%%%%%%%%%%%%%%%%%%%%%%
51422@%%%%%%%%%%%%%%%%%%%%%%%%%%%%%%%%%%%%%%%%%%%%%%%%%%%%%%%%%%%%%%%%%%%%%%%%%%
51346@%%%%%%%%%%%%%%%%%%%%%%%%%%%%%%%%%%%%%%%%%%%%%%%%%%%%%%%%%%%%%%%%%%%%%%%%%%
51271@%%%%%%%%%%%%%%%%%%%%%%%%%%%%%%%%%%%%%%%%%%%%%%%%%%%%%%%%%%%%%%%%%%%%%%%%%%
51196@%%%%%%%%%%%%%%%%%%%%%%%%%%%%%%%%%%%%%%%%%%%%%%%%%%%%%%%%%%%%%%%%%%%%%%%%%%
51121@%%%%%%%%%%%%%%%%%%%%%%%%%%%%%%%%%%%%%%%%%%%%%%%%%%%%%%%%%%%%%%%%%%%%%%%%%%
51045@%%%%%%%%%%%%%%%%%%%%%%%%%%%%%%%%%%%%%%%%%%%%%%%%%%%%%%%%%%%%%%%%%%%%%%%%%%
50970@%%%%%%%%%%%%%%%%%%%%%%%%%%%%%%%%%%%%%%%%%%%%%%%%%%%%%%%%%%%%%%%%%%%%%%%%%%
50895@%%%%%%%%%%%%%%%%%%%%%%%%%%%%%%%%%%%%%%%%%%%%%%%%%%%%%%%%%%%%%%%%%%%%%%%%%%
50820@%%%%%%%%%%%%%%%%%%%%%%%%%%%%%%%%%%%%%%%%%%%%%%%%%%%%%%%%%%%%%%%%%%%%%%%%%%
50744@%%%%%%%%%%%%%%%%%%%%%%%%%%%%%%%%%%%%%%%%%%%%%%%%%%%%%%%%%%%%%%%%%%%%%%%%%%
50669@%%%%%%%%%%%%%%%%%%%%%%%%%%%%%%%%%%%%%%%%%%%%%%%%%%%%%%%%%%%%%%%%%%%%%%%%%%
50594@%%%%%%%%%%%%%%%%%%%%%%%%%%%%%%%%%%%%%%%%%%%%%%%%%%%%%%%%%%%%%%%%%%%%%%%%%%
50518@%%%%%%%%%%%%%%%%%%%%%%%%%%%%%%%%%%%%%%%%%%%%%%%%%%%%%%%%%%%%%%%%%%%%%%%%%%
50443@%%%%%%%%%%%%%%%%%%%%%%%%%%%%%%%%%%%%%%%%%%%%%%%%%%%%%%%%%%%%%%%%%%%%%%%%%%
50368@%%%%%%%%%%%%%%%%%%%%%%%%%%%%%%%%%%%%%%%%%%%%%%%%%%%%%%%%%%%%%%%%%%%%%%%%%%
50293@%%%%%%%%%%%%%%%%%%%%%%%%%%%%%%%%%%%%%%%%%%%%%%%%%%%%%%%%%%%%%%%%%%%%%%%%%%
50217@%%%%%%%%%%%%%%%%%%%%%%%%%%%%%%%%%%%%%%%%%%%%%%%%%%%%%%%%%%%%%%%%%%%%%%%%%%
50142@%%%%%%%%%%%%%%%%%%%%%%%%%%%%%%%%%%%%%%%%%%%%%%%%%%%%%%%%%%%%%%%%%%%%%%%%%%
50067@%%%%%%%%%%%%%%%%%%%%%%%%%%%%%%%%%%%%%%%%%%%%%%%%%%%%%%%%%%%%%%%%%%%%%%%%%%
49991@%%%%%%%%%%%%%%%%%%%%%%%%%%%%%%%%%%%%%%%%%%%%%%%%%%%%%%%%%%%%%%%%%%%%%%%%%%
49916@%%%%%%%%%%%%%%%%%%%%%%%%%%%%%%%%%%%%%%%%%%%%%%%%%%%%%%%%%%%%%%%%%%%%%%%%%%
49841@%%%%%%%%%%%%%%%%%%%%%%%%%%%%%%%%%%%%%%%%%%%%%%%%%%%%%%%%%%%%%%%%%%%%%%%%%%
49766@%%%%%%%%%%%%%%%%%%%%%%%%%%%%%%%%%%%%%%%%%%%%%%%%%%%%%%%%%%%%%%%%%%%%%%%%%%
49690@%%%%%%%%%%%%%%%%%%%%%%%%%%%%%%%%%%%%%%%%%%%%%%%%%%%%%%%%%%%%%%%%%%%%%%%%%%
49615@%%%%%%%%%%%%%%%%%%%%%%%%%%%%%%%%%%%%%%%%%%%%%%%%%%%%%%%%%%%%%%%%%%%%%%%%%%
49540@%%%%%%%%%%%%%%%%%%%%%%%%%%%%%%%%%%%%%%%%%%%%%%%%%%%%%%%%%%%%%%%%%%%%%%%%%%
49465@%%%%%%%%%%%%%%%%%%%%%%%%%%%%%%%%%%%%%%%%%%%%%%%%%%%%%%%%%%%%%%%%%%%%%%%%%%
49389@%%%%%%%%%%%%%%%%%%%%%%%%%%%%%%%%%%%%%%%%%%%%%%%%%%%%%%%%%%%%%%%%%%%%%%%%%%
49314@%%%%%%%%%%%%%%%%%%%%%%%%%%%%%%%%%%%%%%%%%%%%%%%%%%%%%%%%%%%%%%%%%%%%%%%%%%
49239@%%%%%%%%%%%%%%%%%%%%%%%%%%%%%%%%%%%%%%%%%%%%%%%%%%%%%%%%%%%%%%%%%%%%%%%%%%
49163@%%%%%%%%%%%%%%%%%%%%%%%%%%%%%%%%%%%%%%%%%%%%%%%%%%%%%%%%%%%%%%%%%%%%%%%%%%
49088@%%%%%%%%%%%%%%%%%%%%%%%%%%%%%%%%%%%%%%%%%%%%%%%%%%%%%%%%%%%%%%%%%%%%%%%%%%
49013@%%%%%%%%%%%%%%%%%%%%%%%%%%%%%%%%%%%%%%%%%%%%%%%%%%%%%%%%%%%%%%%%%%%%%%%%%%
48938@%%%%%%%%%%%%%%%%%%%%%%%%%%%%%%%%%%%%%%%%%%%%%%%%%%%%%%%%%%%%%%%%%%%%%%%%%%
48862@%%%%%%%%%%%%%%%%%%%%%%%%%%%%%%%%%%%%%%%%%%%%%%%%%%%%%%%%%%%%%%%%%%%%%%%%%%
48787@%%%%%%%%%%%%%%%%%%%%%%%%%%%%%%%%%%%%%%%%%%%%%%%%%%%%%%%%%%%%%%%%%%%%%%%%%%
48712@%%%%%%%%%%%%%%%%%%%%%%%%%%%%%%%%%%%%%%%%%%%%%%%%%%%%%%%%%%%%%%%%%%%%%%%%%%
48636@%%%%%%%%%%%%%%%%%%%%%%%%%%%%%%%%%%%%%%%%%%%%%%%%%%%%%%%%%%%%%%%%%%%%%%%%%%
48561@%%%%%%%%%%%%%%%%%%%%%%%%%%%%%%%%%%%%%%%%%%%%%%%%%%%%%%%%%%%%%%%%%%%%%%%%%%
48486@%%%%%%%%%%%%%%%%%%%%%%%%%%%%%%%%%%%%%%%%%%%%%%%%%%%%%%%%%%%%%%%%%%%%%%%%%%
48411@%%%%%%%%%%%%%%%%%%%%%%%%%%%%%%%%%%%%%%%%%%%%%%%%%%%%%%%%%%%%%%%%%%%%%%%%%%
48335@%%%%%%%%%%%%%%%%%%%%%%%%%%%%%%%%%%%%%%%%%%%%%%%%%%%%%%%%%%%%%%%%%%%%%%%%%%
48260@%%%%%%%%%%%%%%%%%%%%%%%%%%%%%%%%%%%%%%%%%%%%%%%%%%%%%%%%%%%%%%%%%%%%%%%%%%
48185@%%%%%%%%%%%%%%%%%%%%%%%%%%%%%%%%%%%%%%%%%%%%%%%%%%%%%%%%%%%%%%%%%%%%%%%%%%
48110@%%%%%%%%%%%%%%%%%%%%%%%%%%%%%%%%%%%%%%%%%%%%%%%%%%%%%%%%%%%%%%%%%%%%%%%%%%
48034@%%%%%%%%%%%%%%%%%%%%%%%%%%%%%%%%%%%%%%%%%%%%%%%%%%%%%%%%%%%%%%%%%%%%%%%%%%
47959@%%%%%%%%%%%%%%%%%%%%%%%%%%%%%%%%%%%%%%%%%%%%%%%%%%%%%%%%%%%%%%%%%%%%%%%%%%
47884@%%%%%%%%%%%%%%%%%%%%%%%%%%%%%%%%%%%%%%%%%%%%%%%%%%%%%%%%%%%%%%%%%%%%%%%%%%
47808@%%%%%%%%%%%%%%%%%%%%%%%%%%%%%%%%%%%%%%%%%%%%%%%%%%%%%%%%%%%%%%%%%%%%%%%%%%
47733@%%%%%%%%%%%%%%%%%%%%%%%%%%%%%%%%%%%%%%%%%%%%%%%%%%%%%%%%%%%%%%%%%%%%%%%%%%
47658@%%%%%%%%%%%%%%%%%%%%%%%%%%%%%%%%%%%%%%%%%%%%%%%%%%%%%%%%%%%%%%%%%%%%%%%%%%
47583@%%%%%%%%%%%%%%%%%%%%%%%%%%%%%%%%%%%%%%%%%%%%%%%%%%%%%%%%%%%%%%%%%%%%%%%%%%
47507@%%%%%%%%%%%%%%%%%%%%%%%%%%%%%%%%%%%%%%%%%%%%%%%%%%%%%%%%%%%%%%%%%%%%%%%%%%
47432@%%%%%%%%%%%%%%%%%%%%%%%%%%%%%%%%%%%%%%%%%%%%%%%%%%%%%%%%%%%%%%%%%%%%%%%%%%
47357@%%%%%%%%%%%%%%%%%%%%%%%%%%%%%%%%%%%%%%%%%%%%%%%%%%%%%%%%%%%%%%%%%%%%%%%%%%
47281@%%%%%%%%%%%%%%%%%%%%%%%%%%%%%%%%%%%%%%%%%%%%%%%%%%%%%%%%%%%%%%%%%%%%%%%%%%
47206@%%%%%%%%%%%%%%%%%%%%%%%%%%%%%%%%%%%%%%%%%%%%%%%%%%%%%%%%%%%%%%%%%%%%%%%%%%
47131@%%%%%%%%%%%%%%%%%%%%%%%%%%%%%%%%%%%%%%%%%%%%%%%%%%%%%%%%%%%%%%%%%%%%%%%%%%
47056@%%%%%%%%%%%%%%%%%%%%%%%%%%%%%%%%%%%%%%%%%%%%%%%%%%%%%%%%%%%%%%%%%%%%%%%%%%
46980@%%%%%%%%%%%%%%%%%%%%%%%%%%%%%%%%%%%%%%%%%%%%%%%%%%%%%%%%%%%%%%%%%%%%%%%%%%
46905@%%%%%%%%%%%%%%%%%%%%%%%%%%%%%%%%%%%%%%%%%%%%%%%%%%%%%%%%%%%%%%%%%%%%%%%%%%
46830@%%%%%%%%%%%%%%%%%%%%%%%%%%%%%%%%%%%%%%%%%%%%%%%%%%%%%%%%%%%%%%%%%%%%%%%%%%
46755@%%%%%%%%%%%%%%%%%%%%%%%%%%%%%%%%%%%%%%%%%%%%%%%%%%%%%%%%%%%%%%%%%%%%%%%%%%
46679@%%%%%%%%%%%%%%%%%%%%%%%%%%%%%%%%%%%%%%%%%%%%%%%%%%%%%%%%%%%%%%%%%%%%%%%%%%
46604@%%%%%%%%%%%%%%%%%%%%%%%%%%%%%%%%%%%%%%%%%%%%%%%%%%%%%%%%%%%%%%%%%%%%%%%%%%
46529@%%%%%%%%%%%%%%%%%%%%%%%%%%%%%%%%%%%%%%%%%%%%%%%%%%%%%%%%%%%%%%%%%%%%%%%%%%
46453@%%%%%%%%%%%%%%%%%%%%%%%%%%%%%%%%%%%%%%%%%%%%%%%%%%%%%%%%%%%%%%%%%%%%%%%%%%
46378@%%%%%%%%%%%%%%%%%%%%%%%%%%%%%%%%%%%%%%%%%%%%%%%%%%%%%%%%%%%%%%%%%%%%%%%%%%
46303@%%%%%%%%%%%%%%%%%%%%%%%%%%%%%%%%%%%%%%%%%%%%%%%%%%%%%%%%%%%%%%%%%%%%%%%%%%
46228@%%%%%%%%%%%%%%%%%%%%%%%%%%%%%%%%%%%%%%%%%%%%%%%%%%%%%%%%%%%%%%%%%%%%%%%%%%
46152@%%%%%%%%%%%%%%%%%%%%%%%%%%%%%%%%%%%%%%%%%%%%%%%%%%%%%%%%%%%%%%%%%%%%%%%%%%
46077@%%%%%%%%%%%%%%%%%%%%%%%%%%%%%%%%%%%%%%%%%%%%%%%%%%%%%%%%%%%%%%%%%%%%%%%%%%
46002@%%%%%%%%%%%%%%%%%%%%%%%%%%%%%%%%%%%%%%%%%%%%%%%%%%%%%%%%%%%%%%%%%%%%%%%%%%
45926@%%%%%%%%%%%%%%%%%%%%%%%%%%%%%%%%%%%%%%%%%%%%%%%%%%%%%%%%%%%%%%%%%%%%%%%%%%
45851@%%%%%%%%%%%%%%%%%%%%%%%%%%%%%%%%%%%%%%%%%%%%%%%%%%%%%%%%%%%%%%%%%%%%%%%%%%
45776@%%%%%%%%%%%%%%%%%%%%%%%%%%%%%%%%%%%%%%%%%%%%%%%%%%%%%%%%%%%%%%%%%%%%%%%%%%
45701@%%%%%%%%%%%%%%%%%%%%%%%%%%%%%%%%%%%%%%%%%%%%%%%%%%%%%%%%%%%%%%%%%%%%%%%%%%
45625@%%%%%%%%%%%%%%%%%%%%%%%%%%%%%%%%%%%%%%%%%%%%%%%%%%%%%%%%%%%%%%%%%%%%%%%%%%
45550@%%%%%%%%%%%%%%%%%%%%%%%%%%%%%%%%%%%%%%%%%%%%%%%%%%%%%%%%%%%%%%%%%%%%%%%%%%
45475@%%%%%%%%%%%%%%%%%%%%%%%%%%%%%%%%%%%%%%%%%%%%%%%%%%%%%%%%%%%%%%%%%%%%%%%%%%
45400@%%%%%%%%%%%%%%%%%%%%%%%%%%%%%%%%%%%%%%%%%%%%%%%%%%%%%%%%%%%%%%%%%%%%%%%%%%
45324@%%%%%%%%%%%%%%%%%%%%%%%%%%%%%%%%%%%%%%%%%%%%%%%%%%%%%%%%%%%%%%%%%%%%%%%%%%
45249@%%%%%%%%%%%%%%%%%%%%%%%%%%%%%%%%%%%%%%%%%%%%%%%%%%%%%%%%%%%%%%%%%%%%%%%%%%
45174@%%%%%%%%%%%%%%%%%%%%%%%%%%%%%%%%%%%%%%%%%%%%%%%%%%%%%%%%%%%%%%%%%%%%%%%%%%
45098@%%%%%%%%%%%%%%%%%%%%%%%%%%%%%%%%%%%%%%%%%%%%%%%%%%%%%%%%%%%%%%%%%%%%%%%%%%
45023@%%%%%%%%%%%%%%%%%%%%%%%%%%%%%%%%%%%%%%%%%%%%%%%%%%%%%%%%%%%%%%%%%%%%%%%%%%
44948@%%%%%%%%%%%%%%%%%%%%%%%%%%%%%%%%%%%%%%%%%%%%%%%%%%%%%%%%%%%%%%%%%%%%%%%%%%
44873@%%%%%%%%%%%%%%%%%%%%%%%%%%%%%%%%%%%%%%%%%%%%%%%%%%%%%%%%%%%%%%%%%%%%%%%%%%
44797@%%%%%%%%%%%%%%%%%%%%%%%%%%%%%%%%%%%%%%%%%%%%%%%%%%%%%%%%%%%%%%%%%%%%%%%%%%
44722@%%%%%%%%%%%%%%%%%%%%%%%%%%%%%%%%%%%%%%%%%%%%%%%%%%%%%%%%%%%%%%%%%%%%%%%%%%
44647@%%%%%%%%%%%%%%%%%%%%%%%%%%%%%%%%%%%%%%%%%%%%%%%%%%%%%%%%%%%%%%%%%%%%%%%%%%
44571@%%%%%%%%%%%%%%%%%%%%%%%%%%%%%%%%%%%%%%%%%%%%%%%%%%%%%%%%%%%%%%%%%%%%%%%%%%
44496@%%%%%%%%%%%%%%%%%%%%%%%%%%%%%%%%%%%%%%%%%%%%%%%%%%%%%%%%%%%%%%%%%%%%%%%%%%
44421@%%%%%%%%%%%%%%%%%%%%%%%%%%%%%%%%%%%%%%%%%%%%%%%%%%%%%%%%%%%%%%%%%%%%%%%%%%
44346@%%%%%%%%%%%%%%%%%%%J%%%%%%%%%%%%%%%%%%%%%%%%%%%%%%%%%%%%%%%%%%%%%%%%%%%%%%
44270A%%%%%%%%%%%%%%%%%%%%%%%%%%%%%%%%%%%%%%%%%%%%%%%%%%%%%%%%%%%%%%%%%%%%%%%%%%
44195A%%%%%%%%%%%%%%%%%%%%%%%%%%%%%%%%%%%%%%%%%%%%%%%%%%%%%%%%%%%%%%%%%%%%%%%%%%
44120A%%%%%%%%%%%%%%%%%%%%%%%%%%%%%%%%%%%%%%%%%%%%%%%%%%%%%%%%%%%%%%%%%%%%%%%%%%
44045A%%%%%%%%%%%%%%%%%%%%%%%%%%%%%%%%%%%%%%%%%%%%%%%%%%%%%%%%%%%%%%%%%%%%%%%%%%
43969A%%%%%%%%%%%%%%%%%%%%%%%%%%%%%%%%%%%%%%%%%%%%%%%%%%%%%%%%%%%%%%%%%%%%%%%%%%
43894A%%%%%%%%%%%%%%%%%%%%%%%%%%%%%%%%%%%%%%%%%%%%%%%%%%%%%%%%%%%%%%%%%%%%%%%%%%
43819A%%%%%%%%%%%%%%%%%%%%%%%%%%%%%%%%%%%%%%%%%%%%%%%%%%%%%%%%%%%%%%%%%%%%%%%%%%
43743A%%%%%%%%%%%%%%%%%%%%%%%%%%%%%%%%%%%%%%%%%%%%%%%%%%%%%%%%%%%%%%%%%%%%%%%%%%
43668A%%%%%%%%%%%%%%%%%%%%%%%%%%%%%%%%%%%%%%%%%%%%%%%%%%%%%%%%%%%%%%%%%%%%%%%%%%
43593A%%%%%%%%%%%%%%%%%%%%%%%%%%%%%%%%%%%%%%%%%%%%%%%%%%%%%%%%%%%%%%%%%%%%%%%%%%
43518A%%%%%%%%%%%%%%%%%%%%%%%%%%%%%%%%%%%%%%%%%%%%%%%%%%%%%%%%%%%%%%%%%%%%%%%%%%
43442A%%%%%%%%%%%%%%%%%%%%%%%%%%%%%%%%%%%%%%%%%%%%%%%%%%%%%%%%%%%%%%%%%%%%%%%%%%
43367A%%%%%%%%%%%%%%%%%%%%%%%%%%%%%%%%%%%%%%%%%%%%%%%%%%%%%%%%%%%%%%%%%%%%%%%%%%
43292A%%%%%%%%%%%%%%%%%%%%%%%%%%%%%%%%%%%%%%%%%%%%%%%%%%%%%%%%%%%%%%%%%%%%%%%%%%
43216A%%%%%%%%%%%%%%%%%%%%%%%%%%%%%%%%%%%%%%%%%%%%%%%%%%%%%%%%%%%%%%%%%%%%%%%%%%
43141A%%%%%%%%%%%%%%%%%%%%%%%%%%%%%%%%%%%%%%%%%%%%%%%%%%%%%%%%%%%%%%%%%%%%%%%%%%
43066A%%%%%%%%%%%%%%%%%%%%%%%%%%%%%%%%%%%%%%%%%%%%%%%%%%%%%%%%%%%%%%%%%%%%%%%%%%
42991A%%%%%%%%%%%%%%%%%%%%%%%%%%%%%%%%%%%%%%%%%%%%%%%%%%%%%%%%%%%%%%%%%%%%%%%%%%
42915A%%%%%%%%%%%%%%%%%%%%%%%%%%%%%%%%%%%%%%%%%%%%%%%%%%%%%%%%%%%%%%%%%%%%%%%%%%
42840A%%%%%%%%%%%%%%%%%%%%%%%%%%%%%%%%%%%%%%%%%%%%%%%%%%%%%%%%%%%%%%%%%%%%%%%%%%
42765A%%%%%%%%%%%%%%%%%%%%%%%%%%%%%%%%%%%%%%%%%%%%%%%%%%%%%%%%%%%%%%%%%%%%%%%%%%
42690A%%%%%%%%%%%%%%%%%%%%%%%%%%%%%%%%%%%%%%%%%%%%%%%%%%%%%%%%%%%%%%%%%%%%%%%%%%
42614A%%%%%%%%%%%%%%%%%%%%%%%%%%%%%%%%%%%%%%%%%%%%%%%%%%%%%%%%%%%%%%%%%%%%%%%%%%
42539A%%%J%%%%%%%%%%%%%%%%%%%%%%%%%%%%%%%%%%%%%%%%%%%%%%%%%%%%%%%%%%%%%%%%%%%%%%
42464B%%%%%%%%%%%%%%%%%%%%%%%%%%%%%%%%%%%%%%%%%%%%%%%%%%%%%%%%%%%%%%%%%%%%%%%%%%
42388B%%%%%%%%%%%%%%%%%%%%%%%%%%%%%%%%%%%%%%%%%%%%%%%%%%%%%%%%%%%%%%%%%%%%%%%%%%
42313B%%%%%%%%%%%%%%%%%%%%%%%%%%%%%%%%%%%%%%%%%%%%%%%%%%%%%%%%%%%%%%%%%%%%%%%%%%
42238B%%%%%%%%%%%%%%%%%%%%%%%%%%%%%%%%%%%%%%%%%%%%%%%%%%%%%%%%%%%%%%%%%%%%%%%%%%
42163B%%%%%%%%%%%%%%%%%%%%%%%%%%%%%%%%%%%%%%%%%%%%%%%%%%%%%%%%%%%%%%%%%%%%%%%%%%
42087B%%%%%%%%%%%%%%%%%%%%%%%%%%%%%%%%%%%%%%%%%%%%%%%%J%%%%%%%%%%%%%%%%%%%%%%%%%
42012C%%%%%%%%%%%%%%%%%%%%%%%%%%%%%%%%%%%%%%%%%%%%%%%%%%%%%%%%%%%%%%%%%%%%%%%%%%
41937C%%%%%%%%%%%%%%%%%%%%%%%%%%%%%%%%%%%%%%%%%%%%%%%%%%%%%%%%%%%%%%%%%%%%%%%%%%
41861C%%%%%%%%%%%%%%%%%%%%%%%%%%%%%%%%%%%%%%%%%%%%%%%%%%%%%%%%%%%%%%%%%%%%%%%%%%
41786C%%%%%J%%%%%%%%%%%%%%%%%%%%%%%%%%%%%%%%%%%%%%%%%%%%%%%%%%%%%%%%%%%%%%%%%%%%
41711D%%%%%%%%%%%%%%%%%%%%%%%%%%%%%%%%%%%%%%%%%%%%%%%%%%%%%%%%%%%%%%%%%%%%%%%%%%
41636D%%%%%%%%%%%%%%%%%%J%%%%%%%%%%%%%%%%%%%%%%%%%%%%%%%%%%%%%%%%%%%%%%%%%%%%%%%
41560E%%%%%%%%%%%%%%%%%%%%%%%%%%%%%%%%%%%%%%%%%%%%%%%%%%%%%%%%%%J%%%%%%%%%%%%%%%
41485F%%%%%%%%%%%%%%%%%%%%%%%%%%%%%%%%%%%%%%%%%%%%%%%%%%%%%%%%%%%%%%%%%%%%%%J%%%
41410G%%%%%%%%%%%%%%%%%%%%%%%%%%%%%%%%%%%%%%%%%%%%%%%%%%%%%%%%%%%%%%%%J%%%%%%%%%
41335H%%%%%%%%%%%%%%%%%%%%%%%%%%%%%%%%%%%%%%%%%%%%%%J%%%%%%%%%%%%%%%%%%%%%%%%%%%
41259I%%%%%%%%%%%%%%%%%%J%%%%%%%%%%%%%%%%%%%%%%%%%%%%%%%%%%%%%%J%%%%%%%%%%%%%%%%
41184A1%%%%%%%%%%%%%%%%%J%%%%%%%%%%%%%%%%%%%%%%%%%%%%%J%%%%%%%%%%%%%%%%%%%%%%%%%
41110A3%J%%%%%%%%%%%%%%%%%%%%%%J%%%%%%%%%%%%%%%%%%%%%J%%%%%%%%%%%%%%%%%%J%%%%%%%
41035A7%%%%%%%%%%J%%%%%%%%%%%%%%%J%%%%%%%%%%%%%%J%%%%%%%%%%%%%J%%%%%%%%%%%%J%%%%
40961B2%%%%%%%J%%%%%%%%%%J%%%%%%%%%J%%%%%%%%%J%%%%%%%%J%%%%%%%%J%%%%%%%J%%%%%%%J
40887C0%%%%%%%J%%%%%%J%%%%%%J%%%%%J%%%%%%J%%%%J%%%%%J%%%%%J%%%%J%%%%J%%%%J%%%%J%
40813D2%%J%%%J%%%%J%%%J%%%J%%J%%%J%%%J%%J%%%J%%J%%J%%J%%J%%J%%J%%J%J%%J%%J%J%%J%
40738F4J%J%%J%J%J%J%J%J%J%J%J%J%J%J%J%JJ%J%JJ%JJ%JJ%JJ%JJ%JJJ%JJJ%JJJJJ%JJJJJJJJ
40664A11JJ%JJJKJJJJJJJJJKJJJJKJJKJJKJJKJKJKJKKJKJKKKJKKKKKKKKKKKKKKLKKLKLKLKLLKL
40591B30LLLLLLLMLLMLMLMMMMMMMMNMNNMNNNONNOONOPOOPPOQPPQQQQQRRRRJ0J0J0J0J1J1J2J1
40527F06J2J3J2J4J3J4J4J5J6J5J7J6J8J8J8J9K0K1K1K2K2K4K4K6K6K7K8K9L1L1L3L4L5L7L9M0
40490A420M1M4M5M7M9N2N4N6N8O2O4O7P1P4P7Q1Q5Q9R4R9J03J09J14J20J27J33J39J47J55J62
40460D038J71J80J88J98K07K17K27K36K47K56K66K75K83K90K96L00L03L03L00K95K85K73K57
40436I891K36K13J84J52J18Q1M2Kl7p6j14j48j81k08k34k55k71k84k94l00l02l03l01k96k91
40411G024k84k76k67k57k48k38k28k18k09j99j89j81j71j64j55j48j41j33j28j21j14j10j04r9
40386B642r4r0q6q1p8p5p0o8o5o1n9n7n4n2m9m7m6m4m1m1l8l7l6l4l3l2l0l0k8k7k6k6k4k4k3
40351I36k2k1k0k0k0j8j8j8j6j7j6j5j5j4j4j4j3j3j2j2j2j1j1j1j1j0j0j0rrrrqqqqqpqppopo
40306C98pooonononnnnnnmnmmnmmmmlmmlmlmlllmllllklllkllklkklkklkkkkkkkkkkkkjkkkjkk
40233A59jkjkkjjkjkjkjjkjjjkjjjjkjjjjjjjjjjjjjjjjjjjjjj%jjjjj%jjjj%jjj%jj%jj%jj%j
40160H5j%j%jj%j%jj%j%j%j%j%j%j%j%j%j%j%j%j%%j%j%j%%j%j%%j%%j%j%%j%%j%%j%%j%%j%%j
40085E2%%%j%%j%%j%%%j%%%j%%%j%%j%%%%j%%%j%%%j%%%%j%%%j%%%%j%%%%j%%%%%j%%%%j%%%%%
40011C6j%%%%%j%%%%%j%%%%%j%%%%%%j%%%%%%j%%%%%%%j%%%%%%%j%%%%%%%j%%%%%%%%j%%%%%%%
39937B6%j%%%%%%%%%j%%%%%%%%%%j%%%%%%%%%%j%%%%%%%%%%%j%%%%%%%%%%%%j%%%%%%%%%%%%j%
39863A9%%%%%%%%%%%%%j%%%%%%%%%%%%%%%%j%%%%%%%%%%%%%%%%j%%%%%%%%%%%%%%%%%%%j%%%%%
39788A5%%%%%%%%%%%%%%%j%%%%%%%%%%%%%%%%%%%%%%%j%%%%%%%%%%%%%%%%%%%%%%%%%j%%%%%%%
39714A2%%%%%%%%%%%%%%%%%%%%%%j%%%%%%%%%%%%%%%%%%%%%%%%%%%%%%%%%j%%%%%%%%%%%%%%%%
39640A0%%%%%%%%%%%%%%%%%%%%%%%j%%%%%%%%%%%%%%%%%%%%%%%%%%%%%%%%%%%%%%%%%%%%%j%%%
39565H%%%%%%%%%%%%%%%%%%%%%%%%%%%%%%%%%%%%%%%%%%%%%%%%%%%%j%%%%%%%%%%%%%%%%%%%%%
39490G%%%%%%%%%%%%%%%%%%%%%%%%%%%%%%%%%%%%%%%%%%%%%%j%%%%%%%%%%%%%%%%%%%%%%%%%%%
39415F%%%%%%%%%%%%%%%%%%%%%%%%%%%%%%%%%%%%%%%%%%%%%%%%%%%%%%%%%%%j%%%%%%%%%%%%%%
39340E%%%%%%%%%%%%%%%%%%%%%%%%%%%%%%%%%%%%%%%%%%%%%%%%%%%%%%%%%%%%%%%%%%%%%%%%%%
39264E%%%%%%%%%%%%%%%%%%%%%%%%%%j%%%%%%%%%%%%%%%%%%%%%%%%%%%%%%%%%%%%%%%%%%%%%%%
39189D%%%%%%%%%%%%%%%%%%%%%%%%%%%%%%%%%%%%%%%%%%%%%%%%%%%%%%%%%%%%%%%%%%%%%%%%%%
39114D%%%%%%%%%%%%%%%%%%%%%%%%%%%%%%%%%%%%%%%%%j%%%%%%%%%%%%%%%%%%%%%%%%%%%%%%%%
39039C%%%%%%%%%%%%%%%%%%%%%%%%%%%%%%%%%%%%%%%%%%%%%%%%%%%%%%%%%%%%%%%%%%%%%%%%%%
38963C%%%%%%%%%%%%%%%%%%%%%%%%%%%%%%%%%%%%%%%%%%%%%%%%%%%%%%%%%%%%%%%%%%%%%%%%%%
38888C%%%%%%%%%%%%%%%%%%%%%%%%%%%%%%%%%%%%%%%%%%%%%%%%%%%%%%%%%%%%%%%%%%%%%%%%%%
38813C%%%%j%%%%%%%%%%%%%%%%%%%%%%%%%%%%%%%%%%%%%%%%%%%%%%%%%%%%%%%%%%%%%%%%%%%%%
38737B%%%%%%%%%%%%%%%%%%%%%%%%%%%%%%%%%%%%%%%%%%%%%%%%%%%%%%%%%%%%%%%%%%%%%%%%%%
38662B%%%%%%%%%%%%%%%%%%%%%%%%%%%%%%%%%%%%%%%%%%%%%%%%%%%%%%%%%%%%%%%%%%%%%%%%%%
38587B%%%%%%%%%%%%%%%%%%%%%%%%%%%%%%%%%%%%%%%%%%%%%%%%%%%%%%%%%%%%%%%%%%%%%%%%%%
38512B%%%%%%%%%%%%%%%%%%%%%%%%%%%%%%%%%%%%%%%%%%%%%%%%%%%%%%%%%%%%%%%%%%%%%%%%%%
38436B%%%%%%%%%%%%%%%%%%%%%%%%%%%%%%%%%%%%%%%%%%%%%%%%%%%%%%%%%%%%%%%%%%%%%%%%%%
38361B%%%%%%%%%%%%%%%%%%%%%%%%%%%%%%%%%%%%%%%%%%%%%%%%%%%%%%%%%%%%%%%%%%%%%%%%j%
38286A%%%%%%%%%%%%%%%%%%%%%%%%%%%%%%%%%%%%%%%%%%%%%%%%%%%%%%%%%%%%%%%%%%%%%%%%%%
38210A%%%%%%%%%%%%%%%%%%%%%%%%%%%%%%%%%%%%%%%%%%%%%%%%%%%%%%%%%%%%%%%%%%%%%%%%%%
38135A%%%%%%%%%%%%%%%%%%%%%%%%%%%%%%%%%%%%%%%%%%%%%%%%%%%%%%%%%%%%%%%%%%%%%%%%%%
38060A%%%%%%%%%%%%%%%%%%%%%%%%%%%%%%%%%%%%%%%%%%%%%%%%%%%%%%%%%%%%%%%%%%%%%%%%%%
37985A%%%%%%%%%%%%%%%%%%%%%%%%%%%%%%%%%%%%%%%%%%%%%%%%%%%%%%%%%%%%%%%%%%%%%%%%%%
37909A%%%%%%%%%%%%%%%%%%%%%%%%%%%%%%%%%%%%%%%%%%%%%%%%%%%%%%%%%%%%%%%%%%%%%%%%%%
37834A%%%%%%%%%%%%%%%%%%%%%%%%%%%%%%%%%%%%%%%%%%%%%%%%%%%%%%%%%%%%%%%%%%%%%%%%%%
37759A%%%%%%%%%%%%%%%%%%%%%%%%%%%%%%%%%%%%%%%%%%%%%%%%%%%%%%%%%%%%%%%%%%%%%%%%%%
37684A%%%%%%%%%%%%%%%%%%%%%%%%%%%%%%%%%%%%%%%%%%%%%%%%%%%%%%%%%%%%%%%%%%%%%%%%%%
37608A%%%%%%%%%%%%%%%%%%%%%%%%%%%%%%%%%%%%%%%%%%%%%%%%%%%%%%%%%%%%%%%%%%%%%%%%%%
37533A%%%%%%%%%%%%%%%%%%%%%%%%%%%%%%%%%%%%%%%%%%%%%%%%%%%%%%%%%%%%%%%%%%%%%%%%%%
37458A%%%%%%%%%%%%%%%%%%%%%%%%%%%%%%%%%%%%%%%%%%%%%%%%%%%%%%%%%%%%%%%%%%%%%%%%%%
37382A%%%%%%%%%%%%%%%%%%%%%%%%%%%%%%%%%%%%%%%%%%%%%%%%%%%%%%%%%%%%%%%%%%%%%%%%%%
37307A%%%%%%%%%%%%%%%%%%%%%%%%%%%%%%%%%%%%%%%%%%%%%%%%%%%%%%%%%%%%%%%%%%%%%%%%%%
37232A%%%%%%%%%%%%%%%%%%%%%%%%%%%%%%%%%%%%%%%%%%%%%%%%%%%%%%%%%%%%%%%%%%%%%%%%%%
37157A%%%%%%%%%%%%%%%%%%%%%%%%%%%%%%%%%%%%%%%%%%%%%%%%%%%%%%%%%%%%%%%%%%%%%%%%%%
37081A%%%%%%%%%%%%%%%%%%%%%%%%%%%%%%%%%%%%%%%%%%%%%%%%%%%%%%%%%%%%%%%%%%%%%%%%%%
37006A%%%%%%%%%%%%%%%%%%%%%%%%%%%%%%%%%%%%%%%%%%%%%%%%%%%%%%%%%%%%%%%%%%%%%%%%%%
36931A%%%%%%%%%%%%%%%%%%%%%%%%%%%%%%%%%%%%%%%%%%%%%%%%%%%%%%%%%%%%%%%%%%%%%%%%%%
36855A%%%%%%%%%%%%%%%%%%%%%%%%%%%%%%%%%%%%%%%%%%%%%%%%%%%%%%%%%%%%%%%%%%%%%%%%%%
36780A%%%%%%%%%%%%%%%%%%%%%%%%%%%%%%%%%%%%%%%%%%%%%%%%%%%%%%%%%%%%%%%%%%%%%%%%%%
36705A%%%%%%%%%%%%%%%%%%%%%%%%%%%%%%%%%%%%%%%%%%%%%%%%%%%%%%%%%%%%%%%%%%%%%%%%%%
36630A%%%%%%%%%%%%%%%%%%%%%%%%%%%%%%%%%%%%%%%%%%%%%%%%%%%%%%%%%%%%%%%%%%%%%%%%%%
36554A%%%%%%%%%%%%%%%%%%%%%%%%%%%%%%%%%%%%%%%%%%%%%%%%%%%%%%%%%%%%%%%%%%%%%%%%%%
36479A%%%%%%%%%%%%%%%%%%%%%%%%%%%%%%%%%%%%%%%%%%%%%%%%%%%%%%%%%%%%%%%%%%%%%%%%%%
36404A%%%%%%%%%%%%%%%%%%%%%%%%%%%%%%%%%%%%%%%%%%%%%%%%%%%%%%%%%%%%%%%%%%%%%%%%%%
36329A%%%%%%%%%%%%%%%%%%%%%%%%%%%%%%%%%%%%%%%%%%%%%%%%%%%%%%%%%%%%%%%%%%%%%%%%%%
36253A%%%%%%%%%%%%%%%%%%%%%%%%%%%%%%%%%%%%%%%%%%%%%%%%%%%%%%%%%%%%%%%%%%%%%%%%%%
36178A%%%%%%%%%%%%%%%%%%%%%%%%%%%%%%%%%%%%%%%%%%%%%%%%%%%%%%%%%%%%%%%%%%%%%%%%%%
36103A%%%%%%%%%%%%%%%%%%%%%%%%%%%%%%%%%%%%%%%%%%%%%%%%%%%%%%%%%%%%%%%%%%%%%%%%%%
36027A%%%%%%%%%%%%%%%%%%%%%%%%%%%%%%%%%%%%%%%%%%%%%%%%%%%%%j%%%%%%%%%%%%%%%%%%%%
35952@%%%%%%%%%%%%%%%%%%%%%%%%%%%%%%%%%%%%%%%%%%%%%%%%%%%%%%%%%%%%%%%%%%%%%%%%%%
35877@%%%%%%%%%%%%%%%%%%%%%%%%%%%%%%%%%%%%%%%%%%%%%%%%%%%%%%%%%%%%%%%%%%%%%%%%%%
35802@%%%%%%%%%%%%%%%%%%%%%%%%%%%%%%%%%%%%%%%%%%%%%%%%%%%%%%%%%%%%%%%%%%%%%%%%%%
35726@%%%%%%%%%%%%%%%%%%%%%%%%%%%%%%%%%%%%%%%%%%%%%%%%%%%%%%%%%%%%%%%%%%%%%%%%%%
35651@%%%%%%%%%%%%%%%%%%%%%%%%%%%%%%%%%%%%%%%%%%%%%%%%%%%%%%%%%%%%%%%%%%%%%%%%%%
35576@%%%%%%%%%%%%%%%%%%%%%%%%%%%%%%%%%%%%%%%%%%%%%%%%%%%%%%%%%%%%%%%%%%%%%%%%%%
35500@%%%%%%%%%%%%%%%%%%%%%%%%%%%%%%%%%%%%%%%%%%%%%%%%%%%%%%%%%%%%%%%%%%%%%%%%%%
35425@%%%%%%%%%%%%%%%%%%%%%%%%%%%%%%%%%%%%%%%%%%%%%%%%%%%%%%%%%%%%%%%%%%%%%%%%%%
35350@%%%%%%%%%%%%%%%%%%%%%%%%%%%%%%%%%%%%%%%%%%%%%%%%%%%%%%%%%%%%%%%%%%%%%%%%%%
35275@%%%%%%%%%%%%%%%%%%%%%%%%%%%%%%%%%%%%%%%%%%%%%%%%%%%%%%%%%%%%%%%%%%%%%%%%%%
35199@%%%%%%%%%%%%%%%%%%%%%%%%%%%%%%%%%%%%%%%%%%%%%%%%%%%%%%%%%%%%%%%%%%%%%%%%%%
35124@%%%%%%%%%%%%%%%%%%%%%%%%%%%%%%%%%%%%%%%%%%%%%%%%%%%%%%%%%%%%%%%%%%%%%%%%%%
35049@%%%%%%%%%%%%%%%%%%%%%%%%%%%%%%%%%%%%%%%%%%%%%%%%%%%%%%%%%%%%%%%%%%%%%%%%%%
34974@%%%%%%%%%%%%%%%%%%%%%%%%%%%%%%%%%%%%%%%%%%%%%%%%%%%%%%%%%%%%%%%%%%%%%%%%%%
34898@%%%%%%%%%%%%%%%%%%%%%%%%%%%%%%%%%%%%%%%%%%%%%%%%%%%%%%%%%%%%%%%%%%%%%%%%%%
34823@%%%%%%%%%%%%%%%%%%%%%%%%%%%%%%%%%%%%%%%%%%%%%%%%%%%%%%%%%%%%%%%%%%%%%%%%%%
34748@%%%%%%%%%%%%%%%%%%%%%%%%%%%%%%%%%%%%%%%%%%%%%%%%%%%%%%%%%%%%%%%%%%%%%%%%%%
34672@%%%%%%%%%%%%%%%%%%%%%%%%%%%%%%%%%%%%%%%%%%%%%%%%%%%%%%%%%%%%%%%%%%%%%%%%%%
34597@%%%%%%%%%%%%%%%%%%%%%%%%%%%%%%%%%%%%%%%%%%%%%%%%%%%%%%%%%%%%%%%%%%%%%%%%%%
34522@%%%%%%%%%%%%%%%%%%%%%%%%%%%%%%%%%%%%%%%%%%%%%%%%%%%%%%%%%%%%%%%%%%%%%%%%%%
34447@%%%%%%%%%%%%%%%%%%%%%%%%%%%%%%%%%%%%%%%%%%%%%%%%%%%%%%%%%%%%%%%%%%%%%%%%%%
34371@%%%%%%%%%%%%%%%%%%%%%%%%%%%%%%%%%%%%%%%%%%%%%%%%%%%%%%%%%%%%%%%%%%%%%%%%%%
34296@%%%%%%%%%%%%%%%%%%%%%%%%%%%%%%%%%%%%%%%%%%%%%%%%%%%%%%%%%%%%%%%%%%%%%%%%%%
34221@%%%%%%%%%%%%%%%%%%%%%%%%%%%%%%%%%%%%%%%%%%%%%%%%%%%%%%%%%%%%%%%%%%%%%%%%%%
34145@%%%%%%%%%%%%%%%%%%%%%%%%%%%%%%%%%%%%%%%%%%%%%%%%%%%%%%%%%%%%%%%%%%%%%%%%%%
34070@%%%%%%%%%%%%%%%%%%%%%%%%%%%%%%%%%%%%%%%%%%%%%%%%%%%%%%%%%%%%%%%%%%%%%%%%%%
33995@%%%%%%%%%%%%%%%%%%%%%%%%%%%%%%%%%%%%%%%%%%%%%%%%%%%%%%%%%%%%%%%%%%%%%%%%%%
33920@%%%%%%%%%%%%%%%%%%%%%%%%%%%%%%%%%%%%%%%%%%%%%%%%%%%%%%%%%%%%%%%%%%%%%%%%%%
33844@%%%%%%%%%%%%%%%%%%%%%%%%%%%%%%%%%%%%%%%%%%%%%%%%%%%%%%%%%%%%%%%%%%%%%%%%%%
33769@%%%%%%%%%%%%%%%%%%%%%%%%%%%%%%%%%%%%%%%%%%%%%%%%%%%%%%%%%%%%%%%%%%%%%%%%%%
33694@%%%%%%%%%%%%%%%%%%%%%%%%%%%%%%%%%%%%%%%%%%%%%%%%%%%%%%%%%%%%%%%%%%%%%%%%%%
33619@%%%%%%%%%%%%%%%%%%%%%%%%%%%%%%%%%%%%%%%%%%%%%%%%%%%%%%%%%%%%%%%%%%%%%%%%%%
33543@%%%%%%%%%%%%%%%%%%%%%%%%%%%%%%%%%%%%%%%%%%%%%%%%%%%%%%%%%%%%%%%%%%%%%%%%%%
33468@%%%%%%%%%%%%%%%%%%%%%%%%%%%%%%%%%%%%%%%%%%%%%%%%%%%%%%%%%%%%%%%%%%%%%%%%%%
33393@%%%%%%%%%%%%%%%%%%%%%%%%%%%%%%%%%%%%%%%%%%%%%%%%%%%%%%%%%%%%%%%%%%%%%%%%%%
33317@%%%%%%%%%%%%%%%%%%%%%%%%%%%%%%%%%%%%%%%%%%%%%%%%%%%%%%%%%%%%%%%%%%%%%%%%%%
33242@%%%%%%%%%%%%%%%%%%%%%%%%%%%%%%%%%%%%%%%%%%%%%%%%%%%%%%%%%%%%%%%%%%%%%%%%%%
33167@%%%%%%%%%%%%%%%%%%%%%%%%%%%%%%%%%%%%%%%%%%%%%%%%%%%%%%%%%%%%%%%%%%%%%%%%%%
33092@%%%%%%%%%%%%%%%%%%%%%%%%%%%%%%%%%%%%%%%%%%%%%%%%%%%%%%%%%%%%%%%%%%%%%%%%%%
33016@%%%%%%%%%%%%%%%%%%%%%%%%%%%%%%%%%%%%%%%%%%%%%%%%%%%%%%%%%%%%%%%%%%%%%%%%%%
32941@%%%%%%%%%%%%%%%%%%%%%%%%%%%%%%%%%%%%%%%%%%%%%%%%%%%%%%%%%%%%%%%%%%%%%%%%%%
32866@%%%%%%%%%%%%%%%%%%%%%%%%%%%%%%%%%%%%%%%%%%%%%%%%%%%%%%%%%%%%%%%%%%%%%%%%%%
32790@%%%%%%%%%%%%%%%%%%%%%%%%%%%%%%%%%%%%%%%%%%%%%%%%%%%%%%%%%%%%%%%%%%%%%%%%%%
32715@%%%%%%%%%%%%%%%%%%%%%%%%%%%%%%%%%%%%%%%%%%%%%%%%%%%%%%%%%%%%%%%%%%%%%%%%%%
32640@%%%%%%%%%%%%%%%%%%%%%%%%%%%%%%%%%%%%%%%%%%%%%%%%%%%%%%%%%%%%%%%%%%%%%%%%%%
32565@%%%%%%%%%%%%%%%%%%%%%%%%%%%%%%%%%%%%%%%%%%%%%%%%%%%%%%%%%%%%%%%%%%%%%%%%%%
32489@%%%%%%%%%%%%%%%%%%%%%%%%%%%%%%%%%%%%%%%%%%%%%%%%%%%%%%%%%%%%%%%%%%%%%%%%%%
32414@%%%%%%%%%%%%%%%%%%%%%%%%%%%%%%%%%%%%%%%%%%%%%%%%%%%%%%%%%%%%%%%%%%%%%%%%%%
32339@%%%%%%%%%%%%%%%%%%%%%%%%%%%%%%%%%%%%%%%%%%%%%%%%%%%%%%%%%%%%%%%%%%%%%%%%%%
32264@%%%%%%%%%%%%%%%%%%%%%%%%%%%%%%%%%%%%%%%%%%%%%%%%%%%%%%%%%%%%%%%%%%%%%%%%%%
32188@%%%%%%%%%%%%%%%%%%%%%%%%%%%%%%%%%%%%%%%%%%%%%%%%%%%%%%%%%%%%%%%%%%%%%%%%%%
32113@%%%%%%%%%%%%%%%%%%%%%%%%%%%%%%%%%%%%%%%%%%%%%%%%%%%%%%%%%%%%%%%%%%%%%%%%%%
32038@%%%%%%%%%%%%%%%%%%%%%%%%%%%%%%%%%%%%%%%%%%%%%%%%%%%%%%%%%%%%%%%%%%%%%%%%%%
31962@%%%%%%%%%%%%%%%%%%%%%%%%%%%%%%%%%%%%%%%%%%%%%%%%%%%%%%%%%%%%%%%%%%%%%%%%%%
31887@%%%%%%%%%%%%%%%%%%%%%%%%%%%%%%%%%%%%%%%%%%%%%%%%%%%%%%%%%%%%%%%%%%%%%%%%%%
31812@%%%%%%%%%%%%%%%%%%%%%%%%%%%%%%%%%%%%%%%%%%%%%%%%%%%%%%%%%%%%%%%%%%%%%%%%%%
31737@%%%%%%%%%%%%%%%%%%%%%%%%%%%%%%%%%%%%%%%%%%%%%%%%%%%%%%%%%%%%%%%%%%%%%%%%%%
31661@%%%%%%%%%%%%%%%%%%%%%%%%%%%%%%%%%%%%%%%%%%%%%%%%%%%%%%%%%%%%%%%%%%%%%%%%%%
31586@%%%%%%%%%%%%%%%%%%%%%%%%%%%%%%%%%%%%%%%%%%%%%%%%%%%%%%%%%%%%%%%%%%%%%%%%%%
31511@%%%%%%%%%%%%%%%%%%%%%%%%%%%%%%%%%%%%%%%%%%%%%%%%%%%%%%%%%%%%%%%%%%%%%%%%%%
31435@%%%%%%%%%%%%%%%%%%%%%%%%%%%%%%%%%%%%%%%%%%%%%%%%%%%%%%%%%%%%%%%%%%%%%%%%%%
31360@%%%%%%%%%%%%%%%%%%%%%%%%%%%%%%%%%%%%%%%%%%%%%%%%%%%%%%%%%%%%%%%%%%%%%%%%%%
31285@%%%%%%%%%%%%%%%%%%%%%%%%%%%%%%%%%%%%%%%%%%%%%%%%%%%%%%%%%%%%%%%%%%%%%%%%%%
31210@%%%%%%%%%%%%%%%%%%%%%%%%%%%%%%%%%%%%%%%%%%%%%%%%%%%%%%%%%%%%%%%%%%%%%%%%%%
31134@%%%%%%%%%%%%%%%%%%%%%%%%%%%%%%%%%%%%%%%%%%%%%%%%%%%%%%%%%%%%%%%%%%%%%%%%%%
31059@%%%%%%%%%%%%%%%%%%%%%%%%%%%%%%%%%%%%%%%%%%%%%%%%%%%%%%%%%%%%%%%%%%%%%%%%%%
30984@%%%%%%%%%%%%%%%%%%%%%%%%%%%%%%%%%%%%%%%%%%%%%%%%%%%%%%%%%%%%%%%%%%%%%%%%%%
30909@%%%%%%%%%%%%%%%%%%%%%%%%%%%%%%%%%%%%%%%%%%%%%%%%%%%%%%%%%%%%%%%%%%%%%%%%%%
30833@%%%%%%%%%%%%%%%%%%%%%%%%%%%%%%%%%%%%%%%%%%%%%%%%%%%%%%%%%%%%%%%%%%%%%%%%%%
30758@%%%%%%%%%%%%%%%%%%%%%%%%%%%%%%%%%%%%%%%%%%%%%%%%%%%%%%%%%%%%%%%%%%%%%%%%%%
30683@%%%%%%%%%%%%%%%%%%%%%%%%%%%%%%%%%%%%%%%%%%%%%%%%%%%%%%%%%%%%%%%%%%%%%%%%%%
30607@%%%%%%%%%%%%%%%%%%%%%%%%%%%%%%%%%%%%%%%%%%%%%%%%%%%%%%%%%%%%%%%%%%%%%%%%%%
30532@%%%%%%%%%%%%%%%%%%%%%%%%%%%%%%%%%%%%%%%%%%%%%%%%%%%%%%%%%%%%%%%%%%%%%%%%%%
30457@%%%%%%%%%%%%%%%%%%%%%%%%%%%%%%%%%%%%%%%%%%%%%%%%%%%%%%%%%%%%%%%%%%%%%%%%%%
30382@%%%%%%%%%%%%%%%%%%%%%%%%%%%%%%%%%%%%%%%%%%%%%%%%%%%%%%%%%%%%%%%%%%%%%%%%%%
30306@%%%%%%%%%%%%%%%%%%%%%%%%%%%%%%%%%%%%%%%%%%%%%%%%%%%%%%%%%%%%%%%%%%%%%%%%%%
30231@%%%%%%%%%%%%%%%%%%%%%%%%%%%%%%%%%%%%%%%%%%%%%%%%%%%%%%%%%%%%%%%%%%%%%%%%%%
30156@%%%%%%%%%%%%%%%%%%%%%%%%%%%%%%%%%%%%%%%%%%%%%%%%%%%%%%%%%%%%%%%%%%%%%%%%%%
30080@%%%%%%%%%%%%%%%%%%%%%%%%%%%%%%%%%%%%%%%%%%%%%%%%%%%%%%%%%%%%%%%%%%%%%%%%%%
30005@%%%%%%%%%%%%%%%%%%%%%%%%%%%%%%%%%%%%%%%%%%%%%%%%%%%%%%%%%%%%%%%%%%%%%%%%%%
29930@%%%%%%%%%%%%%%%%%%%%%%%%%%%%%%%%%%%%%%%%%%%%%%%%%%%%%%%%%%%%%%%%%%%%%%%%%%
29855@%%%%%%%%%%%%%%%%%%%%%%%%%%%%%%%%%%%%%%%%%%%%%%%%%%%%%%%%%%%%%%%%%%%%%%%%%%
29779@%%%%%%%%%%%%%%%%%%%%%%%%%%%%%%%%%%%%%%%%%%%%%%%%%%%%%%%%%%%%%%%%%%%%%%%%%%
29704@%%%%%%%%%%%%%%%%%%%%%%%%%%%%%%%%%%%%%%%%%%%%%%%%%%%%%%%%%%%%%%%%%%%%%%%%%%
29629@%%%%%%%%%%%%%%%%%%%%%%%%%%%%%%%%%%%%%%%%%%%%%%%%%%%%%%%%%%%%%%%%%%%%%%%%%%
29554@%%%%%%%%%%%%%%%%%%%%%%%%%%%%%%%%%%%%%%%%%%%%%%%%%%%%%%%%%%%%%%%%%%%%%%%%%%
29478@%%%%%%%%%%%%%%%%%%%%%%%%%%%%%%%%%%%%%%%%%%%%%J%%%%%%%%%%%%%%%%%%%%%%%%%%%%
29403A%%%%%%%%%%%%%%%%%%%%%%%%%%%%%%%%%%%%%%%%%%%%%%%%%%%%%%%%%%%%%%%%%%%%%%%%%%
29328A%%%%%%%%%%%%%%%%%%%%%%%%%%%%%%%%%%%%%%%%%%%%%%%%%%%%%%%%%%%%%%%%%%%%%%%%%%
29252A%%%%%%%%%%%%%%%%%%%%%%%%%%%%%%%%%%%%%%%%%%%%%%%%%%%%%%%%%%%%%%%%%%%%%%%%%%
29177A%%%%%%%%%%%%%%%%%%%%%%%%%%%%%%%%%%%%%%%%%%%%%%%%%%%%%%%%%%%%%%%%%%%%%%%%%%
29102A%%%%%%%%%%%%%%%%%%%%%%%%%%%%%%%%%%%%%%%%%%%%%%%%%%%%%%%%%%%%%%%%%%%%%%%%%%
29027A%%%%%%%%%%%%%%%%%%%%%%%%%%%%%%%%%%%%%%%%%%%%%%%%%%%%%%%%%%%%%%%%%%%%%%%%%%
28951A%%%%%%%%%%%%%%%%%%%%%%%%%%%%%%%%%%%%%%%%%%%%%%%%%%%%%%%%%%%%%%%%%%%%%%%%%%
28876A%%%%%%%%%%%%%%%%%%%%%%%%%%%%%%%%%%%%%%%%%%%%%%%%%%%%%%%%%%%%%%%%%%%%%%%%%%
28801A%%%%%%%%%%%%%%%%%%%%%%%%%%%%%%%%%%%%%%%%%%%%%%%%%%%%%%%%%%%%%%%%%%%%%%%%%%
28725A%%%%%%%%%%%%%%%%%%%%%%%%%%%%%%%%%%%%%%%%%%%%%%%%%%%%%%%%%%%%%%%%%%%%%%%%%%
28650A%%%%%%%%%%%%%%%%%%%%%%%%%%%%%%%%%%%%%%%%%%%%%%%%%%%%%%%%%%%%%%%%%%%%%%%%%%
28575A%%%%%%%%%%%%%%%%%%%%%%%%%%%%%%%%%%%%%%%%%%%%%%%%%%%%%%%%%%%%%%%%%%%%%%%%%%
28500A%%%%%%%%%%%%%%%%%%%%%%%%%%%%%%%%%%%%%%%%%%%%%%%%%%%%%%%%%%%%%%%%%%%%%%%%%%
28424A%%%%%%%%%%%%%%%%%%%%%%%%%%%%%%%%%%%%%%%%%%%%%%%%%%%%%%%%%%%%%%%%%%%%%%%%%%
28349A%%%%%%%%%%%%%%%%%%%%%%%%%%%%%%%%%%%%%%%%%%%%%%%%%%%%%%%%%%%%%%%%%%%%%%%%%%
28274A%%%%%%%%%%%%%%%%%%%%%%%%%%%%%%%%%%%%%%%%%%%%%%%%%%%%%%%%%%%%%%%%%%%%%%%%%%
28199A%%%%%%%%%%%%%%%%%%%%%%%%%%%%%%%%%%%%%%%%%%%%%%%%%%%%%%%%%%%%%%%%%%%%%%%%%%
28123A%%%%%%%%%%%%%%%%%%%%%%%%%%%%%%%%%%%%%%%%%%%%%%%%%%%%%%%%%%%%%%%%%%%%%%%%%%
28048A%%%%%%%%%%%%%%%%%%%%%%%%%%%%%%%%%%%%%%%%%%%%%%%%%%%%%%%%%%%%%%%%%%%%%%%%%%
27973A%%%%%%%%%%%%%%%%%%%%%%%%%%%%%%%%%%%%%%%%%%%%%%%%%%%%%%%%%%%%%%%%%%%%%%%%%%
27897A%%%%%%%%%%%%%%%%%%%%%%%%%%%%%%%%%%%%%%%%%%%%%%%%%%%%%%%%%%%%%%%%%%%%%%%%%%
27822A%%%%%%%%%%%%%%%%%%%%%%%%%%%%%%%%%%%%%%%%%%%%%%%%%%%%%%%%%%%%%%%%%%%%%%%%%%
27747A%%%%%%%%%%%%%%%%%%%%%%%%%%%%%%%%%%%%%%%%%%%%%%%%%%%%%%%%%%%%%%%%%%%%%%%%%%
27672A%%%%%%%%%%%%%%%%%%%%%%%%%%%%%%%%%%%%%%%%%%%%%%%%%%%%%%%%%%%%%%%%%%%%%%%%%%
27596A%%%%%%%%%%%%%%%%%%%%%%%%%%%%%%%%%%%%%%%%%%%%%%%%%%%%%%%%%%%%%%%%%%%%%%%%%%
27521A%%%%%%%%%%%%%%%%%%%%%%%%%%%%%%%%%%%%%%%%%%%%%%%%%%%%%%%%%%%%%%%%%%%%%%%%%%
27446A%%%%%%%%%%%%%%%%%%%%%%%%%%%%%%%%%%%%%%%%%%%%%%%%%%%%%%%%%%%%%%%%%%%%%%%%%%
27370A%%%%%%%%%%%%%%%%%%%%%%%%%%%%%%%%%%%%%%%%%%%%%%%%%%%%%%%%%%%%%%%%%%%%%%%%%%
27295A%%%%%%%%%%%%%%%%%%%%%%%%%%%%%%%%%%%%%%%%%%%%%%%%%%%%%%%%%%%%%%%%%%%%%%%%%%
27220A%%%%%%%%%%%%%%%%%%%%%%%%%%%%%%%%%%%%%%%%%%%%%%%%%%%%%%%%%%%%%%%%%%%%%%%%%%
27145A%%%%%%%%%%%%%%%%%%%%%%%%%%%%%%%%%%%%%%%%%%%%%%%%%%%%%%%%%%%%%%%%%%%%%%%%%%
27069A%%%%%%%%%%%%%%%%%%%%%%%%%%%%%%%%%%%%%%%%%%%%%%%%%%%%%%%%%%%%%%%%%%%%%%%%%%
26994A%%%%%%%%%%%%%%%%%%%%%%%%%%%%%%%%%%%%%%%%%%%%%%%%%%%%%%%%%%%%%%%%%%%%%%%%%%
26919A%%%%%%%%%%%%%%%%%%%%%%%%%%%%%%%%%%%%%%%%%%%%%%%%%%%%%%%%%%%%%%%%%%%%%%%%%%
26844A%%%%%%%%%%%%%%%%%%%%%%%%%%%%%%%%%%%%%%%%%%%%%%%%%%%%%%%%%%%%%%%%%%%%%%%%%%
26768A%%%%%%%%%%%%%%%%%%%%%%%%%%%%%%%%%%%%%%%%%%%%%%%%%%%%%%%%%%%%%%%%%%%%%%%%%%
26693A%%%%%%%%%%%%%%%%%%%%%%%%%%%%%%%%%%%%%%%%%%%%%%%%%%%%%%%%%%%%%%%%%%%%%%%%%%
26618A%%%%%%%%%%%%%%%%%%%%%%%%%%%%%%%%%%%%%%%%%%%%%%%%%%%%%%%%%%%%%%%%%%%%%%%%%%
26542A%%%%%%%%%%%%%%%%%%%%%%%%%%%%%%%%%%%%%%%%%%%%%%%%%%%%%%%%%%%%%%%%%%%%%%%%%%
26467A%%%%%%%%%%%%%%%%%%%%%%%%%%%%%%%%%%%%%%%%%%%%%%%%%%%%%%%%%%%%%%%%%%%%%%%%%%
26392A%%%%%%%%%%%%%%%%%%%%%%%%%%%%%%%%%%%%%%%%%%%%%%%%%%%%%%%%%%%%%%%%%%%%%%%%%%
26317A%%%%%%%%%%%%%%%%%%%%%%%%%%%%%%%%%%%%%%%%%%%%%%%%%%%%%%%%%%%%%%%%%%%%%%%%%%
26241A%%%%%%%%%%%%%%%%%%%%%%%%%%%%%%%%%%%%%%%%%%%%%%%%%%%%%%%%%%%%%%%%%%%%%%%%%%
26166A%%%%%%%%%%%%%%%%%%%%%%%%%%%%%%%%%%%%%%%%%%%%%%%%%%%%%%%%%%%%%%%%%%%%%%%%%%
26091A%%%%%%%%%%%%%%%%%%%%%%%%%%%%%%%%%%%%%%%%%%%%%%%%%%%%%%%%%%%%%%%%%%%%%%%%%%
26015A%%%%%%%%%%%%%%%%%%%%%%%%%%%%%%%%%%%%%%%%%%%%%%%%%%%%%%%%%%%%%%%%%%%%%%%%%%
25940A%%%%%%%%%%%%%%%%%%%%%%%%%%%%%%%%%%%%%%%%%%%%%%%%%%%%%%%%%%%%%%%%%%%%%%%%%%
25865A%%%%%%%%%%%%%%%%%%%%%%%%%%%%%%%%%%%%%%%%%%%%%%%%%%%%%%%%%%%%%%%%%%%%%%%%%%
25790A%%%%%%%%%%%%%%%%%%%%%%%%%%%%%%%%%%%%%%%%%%%%%%%%%%%%%%%%%%%%%%%%%%%%%%%%%%
25714A%%%%%%%%%%%%%%%%%%%%%%%%%%%%%%%%%%%%%%%%%%%%%%%%%%%%%%%%%%%%%%%%%%%%%%%%%%
25639A%%%%%%%%%%%%%%%%%%%%%%%%%%%%%%%%%%%%%%%%%%%%%%%%%%%%%%%%%%%%%%%%%%%%%%%%%%
25564A%%%%%%%%%%%%%%%%%%%%%%%%%%%%%%%%%%%%%%%%%%%%%%%%%%%%%%%%%%%%%%%%%%%%%%%%%%
25489A%%%%%%%%%%%%%%%%%%%%%%%%%%%%%%%%%%%%%%%%%%%%%%%%%%%%%%%%%%%%%%%%%%%%%%%%%%
25413A%%%%%%%%%%%%%%%%%%%%%%%%%%%%%%%%%%%%%%%%%%%%%%%%%%%%%%%%%%%%%%%%%%%%%%%%%%
25338A%%%%%%%%%%%%%%%%%%%%%%%%%%%%%%%%%%%%%%%%%%%%%%%%%%%%%%%%%%%%%%%%%%%%%%%%%%
25263A%%%%%%%%%%%%%%%%%%%%%%%%%%%%%%%%%%%%%%%%%%%%%%%%%%%%%%%%%%%%%%%%%%%%%%%%%%
25187A%%%%%%%%%%%%%%%%%%%%%%%%%%%%%%%%%%%%%%%%%%%%%%%%%%%%%%%%%%%%%%%%%%%%%%%%%%
25112A%%%%%%%%%%%%%%%%%%%%%%%%%%%%%%%%%%%%%%%%%%%%%%%%%%%%%%%%%%%%%%%%%%%%%%%%%%
25037A%%%%%%%%%%%%%%%%%%%%%%%%%%%%%%%%%%%%%%%%%%%%%%%%%%%%%%%%%%%%%%%%%%%%%%%%%%
24962A%%%%%%%%%%%%%%%%%%%%%%%%%%%%%%%%%%%%%%%%%%%%%%%%%%%%%%%%%%%%%%%%%%%%%%%%%%
24886A%%%%%%%%%%%%%%%%%%%%%%%%%%%%%%%%%%%%%%%%%%%%%%%%%%%%%%%%%%%%%%%%%%%%%%%%%%
24811A%%%%%%%%%%%%%%%%%%%%%%%%%%%%%%%%%%%%%%%%%%%%%%%%%%%%%%%%%%%%%%%%%%%%%%%%%%
24736A%%%%%%%%%%%%%%%%%%%%%%%%%%%%%%%%%%%%%%%%%%%%%%%%%%%%%%%%%%%%%%%%%%%%%%%%%%
24660A%%%%%%%%%%%%%%%%%%%%%%%%%%%J%%%%%%%%%%%%%%%%%%%%%%%%%%%%%%%%%%%%%%%%%%%%%%
24585B%%%%%%%%%%%%%%%%%%%%%%%%%%%%%%%%%%%%%%%%%%%%%%%%%%%%%%%%%%%%%%%%%%%%%%%%%%
24510B%%%%%%%%%%%%%%%%%%%%%%%%%%%%%%%%%%%%%%%%%%%%%%%%%%%%%%%%%%%%%%%%%%%%%%%%%%
24435B%%%%%%%%%%%%%%%%%%%%%%%%%%%%%%%%%%%%%%%%%%%%%%%%%%%%%%%%%%%%%%%%%%%%%%%%%%
24359B%%%%%%%%%%%%%%%%%%%%%%%%%%%%%%%%%%%%%%%%%%%%%%%%%%%%%%%%%%%%%%%%%%%%%%%%%%
24284B%%%%%%%%%%%%%%%%%%%%%%%%%%%%%%%%%%%%%%%%%%%%%%%%%%%%%%%%%%%%%%%%%%%%%%%%%%
24209B%%%%%%%%%%%%%%%%%%%%%%%%%%%%%%%%%%%%%%%%%%%%%%%%%%%%%%%%%%%%%%%%%%%%%%%%%%
24134B%%%%%%%%%%%%%%%%%%%%%%%%%%%%%%%%%%%%%%%%%%%%%%%%%%%%%%%%%%%%%%%%%%%%%%%%%%
24058B%%%%%%%%%%%%%%%%%%%%%%%%%%%%%%%%%%%%%%%%%%%%%%%%%%%%%%%%%%%%%%%%%%%%%%%%%%
23983B%%%%%%%%%%%%%%%%%%%%%%%%%%%%%%%%%%%%%%%%%%%%%%%%%%%%%%%%%%%%%%%%%%%%%%%%%%
23908B%%%%%%%%%%%%%%%%%%%%%%%%%%%%%%%%%%%%%%%%%%%%%%%%%%%%%%%%%%%%%%%%%%%%%%%%%%
23832B%%%%%%%%%%%%%%%%%%%%%%%%%%%%%%%%%%%%%%%%%%%%%%%%%%%%%%%%%%%%%%%%%%%%%%%%%%
23757B%%%%%%%%%%%%%%%%%%%%%%%%%%%%%%%%%%%%%%%%%%%%%%%%%%%%%%%%%%%%%%%%%%%%%%%%%%
23682B%%%%%%%%%%%%%%%%%%%%%%%%%%%%%%%%%%%%%%%%%%%%%%%%%%%%%%%%%%%%%%%%%%%%%%%%%%
23607B%%%%%%%%%%%%%%%%%%%%%%%%%%%%%%%%%%%%%%%%%%%%%%%%%%%%%%%%%%%%%%%%%%%%%%%%%%
23531B%%%%%%%%%%%%%%%%%%%%%%%%%%%%%%%%%%%%%%%%%%%%%%%%J%%%%%%%%%%%%%%%%%%%%%%%%%
23456C%%%%%%%%%%%%%%%%%%%%%%%%%%%%%%%%%%%%%%%%%%%%%%%%%%%%%%%%%%%%%%%%%%%%%%%%%%
23381C%%%%%%%%%%%%%%%%%%%%%%%%%%%%%%%%%%%%%%%%%%%%%%%%%%%%%%%%%%%%%%%%%%%%%%%%%%
23305C%%%%%%%%%%%%%%%%%%%%%%%%%%%%%%%%%%%%%%%%%%%%%%%%%%%%%%%%%%%%%%%%%%%%%%%%%%
23230C%%%%%%%%%%%%%%%%%%%%%%%%%%%%%%%%%%%%%%%%%%%%%%%%%%%%%%%%%%%%%%%%%%%%%%%%%%
23155C%%%%%%%%%%%%%%%%%%%%%%%%%%%%%%%%%%%%%%%%%%%%%%%%%%%%%%%%%%%%%%%%%%%%%%%%%%
23080C%%%%%%%%%%%%%%%%%%%%%%%%%%%%%%%%%%%%%%%%%%%%%%%%%%%%%%%%%%%%%%%%%%%%%%%%%%
23004C%%%%%%%%%%%%%%%%%%%%%%%%%%%%%%%%%%%%%%%%%%%%%%%%%%%%%%%%%%%%%%%%%%%%%%J%%%
22929D%%%%%%%%%%%%%%%%%%%%%%%%%%%%%%%%%%%%%%%%%%%%%%%%%%%%%%%%%%%%%%%%%%%%%%%%%%
22854D%%%%%%%%%%%%%%%%%%%%%%%%%%%%%%%%%%%%%%%%%%%%%%%%%%%%%%%%%%%%%%%%%%%%%%%%%%
22779D%%%%%%%%%%%%%%%%%%%%%%%%%%%%%%%%%%%%%%%%%%%%%%%%%%%%%%%%%%%%%%%%%%%%%%%%%%
22703D%%%%%%%%%%%%%%%%%%%%%%%%%%%%%%%%%%%%%%%%%%%%%%%%%%%%%%%%%%%%%%%%%%%%%%%%%%
22628D%%%%%%%%%%%%%%%%%%%%%J%%%%%%%%%%%%%%%%%%%%%%%%%%%%%%%%%%%%%%%%%%%%%%%%%%%%
22553E%%%%%%%%%%%%%%%%%%%%%%%%%%%%%%%%%%%%%%%%%%%%%%%%%%%%%%%%%%%%%%%%%%%%%%%%%%
22477E%%%%%%%%%%%%%%%%%%%%%%%%%%%%%%%%%%%%%%%%%%%%%%%%%%%%%%%%%%%%%%%%%%%%%%%%%%
22402E%%%%%%%%%%%%%%J%%%%%%%%%%%%%%%%%%%%%%%%%%%%%%%%%%%%%%%%%%%%%%%%%%%%%%%%%%%
22327F%%%%%%%%%%%%%%%%%%%%%%%%%%%%%%%%%%%%%%%%%%%%%%%%%%%%%%%%%%%%%%%%%%%%%%%%%%
22252F%%%%%%%%%%%%%%%%%%%%%J%%%%%%%%%%%%%%%%%%%%%%%%%%%%%%%%%%%%%%%%%%%%%%%%%%%%
22176G%%%%%%%%%%%%%%%%%%%%%%%%%%%%%%%%%%%%%%%%%%%%%%%%%%%%%%%%%%%%%%%%J%%%%%%%%%
22101H%%%%%%%%%%%%%%%%%%%%%%%%%%%%%%%%%%%%%%%%%%%%%%%%%%%%%%%%%%%%%%%%%%%%%%%%%%
22026H%%%%%%%%J%%%%%%%%%%%%%%%%%%%%%%%%%%%%%%%%%%%%%%%%%%%%%%%%%%%%%%%%%%%%%%%%%
21950I%%%%%%%J%%%%%%%%%%%%%%%%%%%%%%%%%%%%%%%%%%%%%%%%%%%%%%%%%%%%%%%%%%%%J%%%%%
21875A1%%%%%%%%%%%%%%%%%%%%%%%%%%%%%%%%%%%%%%%%%%%%%J%%%%%%%%%%%%%%%%%%%%%%%%%%%
21801A2%%%%%%%%%%%%%%%J%%%%%%%%%%%%%%%%%%%%%%%%%%%%%%%%%%%%J%%%%%%%%%%%%%%%%%%%%
21727A4%%%%%%%%%%%J%%%%%%%%%%%%%%%%%%%%%%%%%%%J%%%%%%%%%%%%%%%%%%%%%%%%J%%%%%%%%
21652A7%%%%%%%%%%%%%J%%%%%%%%%%%%%%%%%%%J%%%%%%%%%%%%%%%%J%%%%%%%%%%%%%%%J%%%%%%
21578B1%%%%%%%J%%%%%%%%%%%%J%%%%%%%%%%%J%%%%%%%%%%J%%%%%%%%%J%%%%%%%%J%%%%%%%J%%
21504B8%%%%%J%%%%%%J%%%%%%J%%%%%J%%%%%J%%%%J%%%%J%%%%J%%%%J%%%J%%%J%%%J%%J%%%J%%
21430D2J%%J%%J%J%%J%%J%J%J%J%%J%JJ%J%J%JJ%J%JJ%JJJ%JJJJJJ%JJJJKJJJJJKJJKJKJKJKKK
21355A00JKKKLKKLKLKLLLLMLMMMMMNMNNONOPOPPQQQRRJ0J0J1J1J2J2J3J4J4J5J6J6J6J7J8J8J9
21299E10J9J9J9J9J9J8J8J6J6J3J3J0QOLJjmorj0j3j4j5j7j7j8j8j9j9j8j8j8j8j7j7j6j5j5j4
21259C81j3j3j2j2j1j1j0rrrqqpppoononnmmmmmmlllllklkkkkkkkjkjjkjjjjjjjj%jj%j%j%%j%
21193A24%%j%%%%%%%%%J%%%J%%J%%J%J%JJ%JJ%JJJJ%JJJJJJJKJJJKJJKJKJKKJKKKKKKKKKKLKKL
21119A93LKLLLLLMLLMMMMMMMNNMNONOOOOOPPPQQQRRRJ0J0J1J1J1J3J2J4J3J5J5J6J7J7J9J9K0
21064F26K2K2K3K5K5K7K8L0L0L2L4L4L6L7L9L9M0M1M2M1M2M1M0L9L8L5L2K9K6K1J7J3QLkoj1j4
21026A624j8k1k3k5k7k8k8k9k8k7k7k6k4k3k1k0j8j6j4j2j1qonk%JMNQJ0J2J3J6J8K1K2K4K7K9
20985A347L1L4L5L7M0M1M4M4M7M7M8M9M8M9M8M6M5M3M0L7L5L0K8K3K0J7J4J1QOMLJjjlloprj1
20943B359j4j6k0k4k7l0l5l7m1m4m7m8n1n2n3n3n3n3n2n2n0m9m7m6m4m2m1l8l7l5l4l1l0k9k6
20908I78k6k4k2k1k0j9j7j6j6j4j3j2j1j0j0qqponnllljj%JKKLMNNOQQRRJ1J2J2J4J4J5J7J7J8
20859H69J8K0K0K1K1K2K1K2K1K1K0J9J8J6J5J3J2RQNMKJjjllkllkj%JKMNOPRJ0J2J2J4J4J4J5
20811A324J5J5J5J3J3J2J1RQONMKJJjjkkllmmmoopqrj2j2j4j6j8j9k1k2k3k4k5k5k6k6k5k5k5
20764A036k4k4k2k2k0k0j9j7j7j5j5j3j3j1j0j0qqpnnmmkkj%JKKLMNOOPQRJ0J1J2J3J4J5J6J7
20718H79J8K0K1K2K4K5K7K8L0L1L3L5L7L9M0M2M4M6M7M9N1N1N2N4N3N4N3N2N1N0M7M5M2L8L5L2
20681B297K8K4K1J8J5J2J0PONLLJjjlnqrj3j5j9k3k5l0l3l6l9m1m4m5m7m7m8m8m7m6m5m4m2m1
20639A605l8l7l4l2l0k8k6k3k1j9j7j4j2j1qomj%KNORJ1J2J5J7J9K1K2K5K6K8K9L1L2L2L3L3L3
20599A685L2L1K9K7K5K1J8J4J0NJlpj2j5j8k1k3k5k6k7k8k7k6k6k5k3k2k1j8j7j5j4j2j1j0qqp
20559A403ppqqrj0j2j3j4j7j8j9k1k3k3k5k5k6k6k6k6k6k5k5k4k3k2k2k0k0j8j8j7j5j5j3j3j2
20520G12j1j0rqppnnmllkj%JJLLLNNPPQRRJ1J1J3J3J4J4J5J6J7J7J7J7J7J8J6J6J5J4J2J1RPML
20469A015%knorj0j2j3j4j5j6j5j6j6j5j5j5j4j3j2j2j0j0rppommlk%%JLLNNPPRJ0J1J2J4J4J6
20422H25J8J8K0K2K3K4K6K7K9L0L1L3L4L5L6L7L7L7L8L6L6L4L3L0K7K4K0J6J1PKlpj2j6j9k3k6
20383A550k8l0l1l2l2l2l2l1l1k9k8k6k5k3k2j9j8j6j4j2j1rpnmk%JKMMOPPPQQQPONMK%jmopj0
20333A059j2j4j5j7j8j8k0k0k0k1k0k0j9j9j8j8j7j6j5j4j3j2j2j0j0qqponmmkkj%JJLLMNOPQR
20286F51RJ1J1J2J3J4J5J6J6J8J7J9J8J9J9J9J8J8J7J6J4J4J1RQNLJ%lnopqrj0j0rj0qrppnnlk
20238I08jJKLLNOPPPQPQOONLKjkmpqj1j3j5j6j8j9k0k1k2k2k2k2k2k2k1k1k0k0j8j8j8j6j6j6
20191E22j4j4j3j3j1j2j0j0j0rrqqppopnonnnmmmlmllklkkkkjkjjjj%j%%%%J%JJ%KJJKKJLKKLL
20127C07LLLMMMMNMNONOPOPQPQRRJ0J0J0J1J2J2J3J4J4J5J6J6J8J9J9K1K1K3K4K5K6K8K9L0L1
20080H91L3L4L5L7L7L9L9M0M0M0M0L9L8L6L4L2K8K5K2J6J3PLkoj1j5j8k2k4k6k8k9k9l0k9k9k9
20041A271k7k6k4k3k1j9j8j5j4j2j0qpmlk%JLLMNNONMMLKJklnqrj1j3j5j7j8j9k0k1k1k1k2k1
19993H38k1k1k0j9j9j8j7j6j6j4j4j2j2j1j0rrqooommlkkj%JJKLMMNOPQQRJ0J1J1J3J3J4J5J5
19944F98J6J7J7J8J7J8J8J7J7J6J5J4J2J0QPMKjlnprj1j2j4j4j5j6j6j6j5j6j5j4j4j3j2j2j0
19904F81j0qqpommlkjJJKLMNOQQJ0J0J2J3J4J6J6J8K0K1K2K3K5K7K7L0L0L2L2L4L4L5L6L5L5L4
19858A307L3L1K9K6K4J9J6J1OKlrj2j8k1k6k9l1l4l6l7l8l9l9l8l9l7l7l6l5l3l3l1l0k9k7k6
19820G01k5k4k2k2k0k0j9j7j7j6j5j4j4j3j2j2j1j1j0j0rrqqqpppooononmnmnlmmlmllkllkkkk
19767B22kkkjkjjkjj%jj%j%%%%%%%J%J%JJJKJJKKKKKKLLKMLLMMNMNNNOOPOQPQRRRJ0J1J1J2J2
19700D06J3J3J5J4J6J6J7J7J7J9J8J9J8J9J9J8J7J6J6J3J3J0QOMJjmoqj0j2j4j6j6j7j8j9j8j9
19660F00j9j8j8j8j7j7j6j6j4j5j3j3j2j2j1j1j0rrrqppppononmnmmmlllllkkkkkjkjjjj%j%%%
19604B11%%%%JJ%JJKJJKKKKKKLLKMLLMMMMNMONONPOPPQQRRRJ0J1J1J1J3J2J4J4J6J6J6J8J9J9
19546E66K1K2K3K4K5K6K8K9L0L1L3L4L5L5L7L7L7L8L7L7L6L4L3L0K7K4K0J5J1PJlrj3j8k1k6k8
19507A305l2l3l6l6l8l8l8l8l7l7l6l4l4l3l1l1k9k7k7k5k4k3k2k1k0j8j8j7j7j5j5j4j3j3j2
19471C73j1j1j0j0j0rqrqppppooononnnmmnmmlmlmllllllklkklkkkkkkkkjkkjkjkjjkjjjjkjjj
19403A10jjjjjj%jjjj%jjj%jj%j%j%jj%j%j%j%%j%j%%j%%j%%j%%j%%j%%%j%%%%j%%%%j%%%%%%j
19330G7%%%%%%%%%j%%%%%%%%%%%%%%%%%%%%%%%%%%%%%%%%%%%%J%%%%%%%%%J%%%%%%%J%%%%%%J%
19256H0%%%J%%%%J%%%%J%%%J%%%J%%%J%%J%%J%%%J%%J%J%%J%%J%J%%J%J%J%%J%J%J%J%J%J%JJ%
19181A05J%J%JJ%JJ%JJ%JJ%JJ%JJJJ%JJJJJ%JJJJJJJJJJJJJJJJKJJJJKJJJKJKJJKJKJKJKKJKKK
19108A80JKKKKKKKKKKKLKKLKLKLLKLLLLLLLLMLLMMLMMMMMNMMNNNNNNNOONOPOOPPPQPQQQRQRJ0R
19036D88J0J1J0J1J1J2J2J3J3J3J4J5J5J5J6J7J7J8J9K0K0K1K2K3K4K5K6K7K8L0L1L2L4L5L7L9
18999A224M0M3M4M7M9N1N4N7O0O2O6P0P2P7Q0Q5Q8R4R7J03J07J12J18J22J27J33J37J41J45J49
18969C854J52J53J55J54J52J49J44J37J29J17J05R0P5N6L8J8jk1m0n8p5r0j03j14j24j32j37
18941D783j40j43j43j43j41j37j35j30j26j20j15j10j04r8r3q8q2p7p1o7o1n7n3m8m4m0l7l3l0
18912B117k7k5k2k0j9j7j7j6j5j5j6j6j7j7j8k0k0k0k2k2k2k2k2k1k1j9j9j8j6j5j4j2j1rrpon
18873A468mnmmnooqrj1j2j5j6j7k0k1k2k3k5k5k5k6k5k6k5k5k4k3k2k2k1k0j8j8j7j6j4j4j3j2
18833H04j1j0rqppnnmlkk%%JKLLNNOQQRJ1J1J2J4J5J6J7J8K0K1K2K4K5K7K8K9L1L1L3L4L4L5L5
18785A324L6L4L4L3L1K9K6K3J9J6J0PJmqj4j7k2k6k8l2l4l6l7l8l8l9l8l8l7l7l5l5l3l2l0l0
18747I05k8k6k6k4k3k2k1k0j8j8j7j6j4j5j3j3j2j1j0j0j0rqqppooonnmmmlllkkkjjj%%%%JJKJ
18695D46KLLLLMMNNOOOPPQRRRJ1J0J2J2J3J3J5J5J5J7J7J8J8J9K0K0K0K1K0K1K0J9J9J8J7J5J3
18649I93J2RPNL%kmnqrj0j1j2j3j2j3j2j2j2j1j0rqqonmlkjJKLMNPQRJ1J2J3J4J6J8J8K0K1K3
18600A032K3K5K7K7K8K9K9L0L0L1L0K9K9K8K7K5K4K3K0J9J6J5J2J1RPNLJjkmpqrj1j3j4j5j6j7
18558A527j7j6j7j6j6j5j4j2j1j0rpnnlkj%%%J%%kkmnpqj1j2j4j5j7j8k0k0k1k1k1k1k1k1k0k0
18512A031j8j8j7j6j5j4j3j2j1j0rqponmlkk%JJKMMNOPQRJ0J1J2J3J4J5J6J8J9K0K2K3K4K6K8
18466A159K9L1L2L4L6L7M0M1M2M5M6M7M8N0N0N0N1N0N0M8M7M5M2L9L6L2K8K4K0J5J1QM%lnqj0
18428B341j2j4j5j7j9j9k1k2k3k4k5k5k6k6k6k6k5k4k3k2k0j9j7j5j4j0romkJMORJ2J4J7K0K2
18388A896K6K9L1L5L8M1M5M8N2N5N9O3O7P1P5P9Q3Q7R1R5R9J02J06J09J11J13J15J16J16J16
18357D169J14J12J10J06J01R6R0Q3P6O8O0N3M5L8L0K5J9J5J0QMMJ%jkmorj3j7k2k8l4m2m9n7o5
18319E088p2q0q7r3r9j04j08j11j13j16j16j16j15j14j13j10j07j04j00r7r3q9q5q1p7p3o9o4
18290B382o1n8n3n0m6m3m0l6l3l0k7k4k1j9j5j3j0qnk%LNPJ0J2J4J6J8K0K1K3K4K4K5K6K6K6K5
18251B113K5K5K3K3K1K0J9J8J6J4J3J1ROMJkorj4j8k2k6l0l4l8m1m3m6m8m9n1n0n1n0n0m9m8m7
18211A539m5m3m2m0l9l6l5l4l1l0k8k7k5k4k2k1k0j8j7j6j5j4j2j2j0rrppommlkj%JJLLNNPPRR
18164H81J0J2J2J4J4J6J6J8J8J9K0K0K1K1K1K1K1K0K0J9J7J6J5J3J1RQNNLJJ%j%j%JJLMMPPJ0
18118A373J0J2J3J4J5J6J7J6J7J7J6J5J5J3J2J0RONMJ%lmoqj0j2j4j6j7k0k2k3k5k6k8k8l0l0
18078A304l0l1l0l0k9k9k7k7k6k4k4k2k0k0j8j6j6j4j2j2j0qqonmkk%JLLNNPQQJ0J0J1J2J2J2
18034I09J2J3J2J1J0J0QONL%kmorj0j3j5j6j8j8k0k0k1k0k1k1k0k0k0j9j8j8j7j6j6j5j4j3j3
17993E46j2j2j1j0rrrqppponomnmmllklkjkj%j%%J%KJKKKLLLMMMNONOPPQQQRJ0J1J1J1J3J3J4
17932E76J5J5J7J8J8K0K1K1K3K5K5K7K8K9L1L2L3L4L5L6L7L7L8L8L7L7L5L4L2K9K6K3J9J4J0N%
17895A530nj0j4j9k2k6k9l1l3l5l6l6l7l6l6l6l4l4l3l1l0k9k7k6k5k3k2k1j9j9j7j6j5j3j3j2
17858F30j0j0rqppnnmlkk%%%KKLMNNPPQRRJ1J2J2J3J5J5J6J7J7J9J9J9K0K0K1K0K0J9J9J8J6J5
17809I92J4J2RQOMK%jlmnonoonnnllk%%JKKLLLLKKJ%kmnpj0j1j3j6j7j9k0k1k3k3k3k4k5k4k3
17754G00k4k3k2k2k1k1j9j9j9j7j7j6j5j5j4j3j3j2j2j1j0j0j0rrqqqppppoononnnnmnmmmlmlm
17704A77llllllklklkklkkkkkkjkkkjkjkjkjjkjjkjjjjjjjkjj%jjjjjjjj%jjj%jjj%jj%jj%j%j
17631G5j%j%j%j%j%j%j%j%j%j%j%%j%j%%j%%j%j%%j%%j%%j%%%j%%j%%%j%%j%%%j%%%j%%%j%%%%
17557D9j%%%j%%%%j%%%%%j%%%%j%%%%%j%%%%%j%%%%%j%%%%%%j%%%%%%%j%%%%%%%j%%%%%%%j%%%
17483C7%%%%%%j%%%%%%%%%j%%%%%%%%%%j%%%%%%%%%%%j%%%%%%%%%%%%j%%%%%%%%%%%%%%j%%%%%
17408C1%%%%%%%%%%%%j%%%%%%%%%%%%%%%%%%%%j%%%%%%%%%%%%%%%%%%%%%%%%%j%%%%%%%%%%%%%
17334B8%%%%%%%%%%%%%%%%%%%%%%%%%%%%j%%%%%%%%%%%%%%%%%%%%%%%%%%%%%%%%%%%%%%%%%%%%
17260B7%%%%%%%%%%%%%%%%%%%%%%%J%%%%%%%%%%%%%%%%%%%%%%%%%%%%%%%%%%J%%%%%%%%%%%%%%
17186B9%%%%J%%%%%%%%%%%%%J%%%%%%%%%%J%%%%%%%%J%%%%%%%J%%%%%%J%%%%%J%%%%%J%%%%J%%
17111C8%J%%%J%%%J%%%J%%J%%J%%J%J%%J%J%J%J%J%J%J%J%JJ%JJ%JJJJ%JJJJJJJJJJJKJJJKJKJ
17037H4KJKKKKKKKKKLKLKLLLLMLMMMMMNNNNNOOPOPQQQQJ0RJ0J1J1J1J3J2J4J4J4J6J6J6J7J8J8
16979D73J8J9J9J9J9J8J8J8J6J5J4J2J1QOLJjmpqj1j2j4j6j6j8j8j9j8j9j9j9j8j8j7j7j6j6j5
16938C71j4j4j3j3j2j1j1j0j0rrrqppppoononnmnmmmlmllmkllklkklkkjkkkjkjkjjkjjjjjjjjj
16874G9jjj%jj%jj%j%j%j%j%j%%j%%j%%%j%%%j%%%%%%%%j%%%%%%%%%%J%%%%%%%%J%%%%J%%%J%%
16800F6%J%%J%J%%J%J%J%J%J%JJ%JJ%JJ%JJJJJJ%JJJJKJJJJJKJJKJKJKKJKKKKKKKKLKKLLKLLLL
16726A55MLMLMMMNMNNNNNOOOPPPPQQRRRJ0J0J1J2J2J2J3J4J5J5J6J7J8J9K0K0K2K3K4K5K7K7K9
16676G15L0L2L2L4L5L5L7L7L8L8L8L7L6L6L3L1K8K6K1J7J3QMkpj1j6k0k4k8l0l3l4l6l7l8l8l8
16637I99l7l7l6l5l4l3l1l1k9k8k6k6k4k3k3k1j9j9j9j7j6j6j4j4j4j2j2j2j1j0j0j0rqrpqppo
16597B39pononnnnmnmmlmmlllllllklklkkkkkkkkjkkjkjjkjjkjjjjjjjjjjj%jjj%jj%jj%j%j%j
16523H3%j%%j%%j%%j%%%%j%%%%%%j%%%%%%%%%%%J%%%%%%J%%%%J%%J%%J%%J%J%J%J%J%JJ%JJ%JJ
16449I3JJJ%JJJJKJJJJJKJKJJKKJKKKKJLKKKKLKLLLKMLLLMMLNMMNMNNONOOPOPQPQRQJ0RJ0J1J1
16379C45J2J2J3J4J4J5J6J7J7J8J9K0K1K2K2K4K4K6K6K7K8K8K9K9K9K9K9K9K8K6K6K4K3K1J9J7
16342A138J6J3J1RQNMKJjlnoqj1j2j4j6j8k0k1k4k5k6k7k8k9k9k9k9k9k9k8k7k7k6k5k4k3k2k2
16301E44k0k0j8j8j7j6j6j4j4j4j2j2j2j1j0j0rrrqqqppoooononnmnmmmmlmlllllllklkkklkkk
16244A27jkkkjkjkjkjjjkjjjjjjjjj%jjj%jjj%j%j%j%j%j%j%%j%%j%%j%%%%j%%%%%%%%%%%%%%%
16170H1%%%%%%%J%%%%J%%%J%%J%%J%J%J%J%J%JJ%JJ%JJJ%JJJJJJJJJJKJJJKJKJKJKKJKKKKKKKL
16096A43KLKLLLLLLLMLMMMMNMNNNONOOPOPQPRQRRJ0J0J1J1J2J2J3J4J4J5J6J7J7J9J9K1K1K3K3
16042F09K5K6K8K8L0L1L2L4L4L6L6L7L8L8L7L8L7L5L4L2K9K6K2J9J4RNjnj0j5j9k3k7k9l2l5l5
16004A168l7l8l7l8l8l7l6l5l4l4l2l0l0k8k7k6k5k3k2k2k0j9j8j8j6j6j5j4j4j3j2j2j1j0j0
15968C21j0rrqqqppopoonnonmnmmmmmlmllllllklklkkkkkkkkkjkjkjkjjkjjjjjjjjjjjjjj%jjj
15896I7%j%jj%j%j%j%j%%j%%j%%j%%%j%%%%%j%%%%%%%%%%%%%%%%%%%J%%%%%J%%%J%%%J%%J%J%%
15821I1J%J%J%J%JJ%JJ%JJ%JJJJJJJJJJJJJJKJJKJKJKJKKKKKKKKKKLKLLLLLLLMMLMNMMNNNONOP
15747B41OPPQQQRRRJ0J1J1J2J2J3J3J4J5J5J6J7J7J8J8J9J9J9K0K0J9J9J9J8J7J6J4J3J0ROMJj
15703G85loqj0j2j3j5j6j6j7j8j7j8j8j7j7j6j6j5j5j4j4j2j2j2j1j0rrrqppoonnnmmlllkljkj
15655C15jj%%%%JJJJKKKKLLLLMMMMNNNOOOOPQPQRRRJ0J0J1J1J2J3J3J4J4J5J6J7J8J8K0K0K2K2
15600G25K4K5K7K8K9L1L2L4L6L8M0M2M4M6M9N1N3N6N8O1O3O6O8P0P2P4P4P6P5P5P4P2O9O5O1N4
15563B637M8M0L1K3J2Lpj7k6l5m3n1n7o2o7p1p3p4p6p5p6p4p3p2o9o7o5o2o0n8n5n3n0m8m5m3
15526A090m2l9l7l6l3l2l1k9k7k6k5k4k2k2k0k0j8j8j7j6j5j5j4j3j3j2j2j1j1j0j0j0rqrqpqp
15487C54pooooonnnnnmmnmlmmllllllllkklkkkkkkkjkkjkjjjkjjjjj%jjj%j%j%j%j%%%%j%%%%%
15414A93J%%%%J%J%J%J%JJ%JJJJJJJJJJJKJJKJKJKJKKKKKKKKKLKKLLKLLLLLLLMLMLMMMMNMMNNN
15340C36NNONOOOPOPPPQPQQRRRRJ0J0J1J0J2J1J2J3J3J3J4J5J5J5J7J7J7J9J9K0K1K1K3K4K4K6
15293H98K7K8K9L1L2L4L5L8L8M1M3M5M7M9N2N5N7O1O3O7P0P4P8Q2Q6R0R4J00J04J09J14J19J24
15260C014J29J33J38J42J46J48J50J52J51J50J46J43J35J27J17J04R0P4N7L8J8jk2m0n9p7r2
15232E211j06j18j29j37j42j48j50j51j52j50j48j45j41j37j33j28j23j19j13j08j04r9r4q9q6
15207B061q1p7p3p0o7o3o0n7n4n2m9m6m5m2m1l8l7l5l4l2l1k9k8k6k6k5k3k3k1k1k0j9j8j8j6
15171F64j7j5j5j5j4j3j3j3j2j1j1j1j0j1rj0rqrqqqpppppoooononnnnnmnmmmmmmlmlllmlklll
15113B52klklkkklkkkjkkkjkjkjkjjkjjjjjjjjjj%jj%j%j%j%j%%%j%%%%%%%%%J%%J%%J%JJ%JJ%
15040A97JJJJJJKJJKJKJKKJKKKKKLKLKLLLLLLLMLMMMMNMNNNNOOOOPOPQPQRQRJ0RJ1J0J2J1J3J2
14974D92J4J4J4J6J6J7J8J8K0K0K2K2K4K5K6K8K9L0L2L4L6L7L9M2M3M6M8N0N3N5N8O0O3O5O7P0
14937A763P1P3P5P5P5P6P4P2P0O6O2N6M9M2L4K5J5Nmj5k4l3m1m9n6o1o6p0p2p5p5p6p6p5p4p2
14901A764p0o8o5o4o1n8n6n3n1m9m7m4m2m0l8l6l4l3l1l0k8k7k5k5k3k2k1k0j9j8j8j6j6j5j5
14865D86j4j3j3j2j2j1j1j0j0j0rrqqqqppppoooonnnnnnmnmmmmmlmlmllllllkllklkkklkkkkkk
14802A43kjkkkjkjkkjjkjkjjjkjjjjjjkjjjjjj%jjjjjj%jjjj%jj%jj%jj%jj%j%j%jj%j%j%j%j%
14729G4%j%j%j%%j%j%%j%j%%j%%j%%j%%%j%%j%%%j%%%j%%%j%%%j%%%%j%%%%j%%%%j%%%%%j%%%%
14655E4%%j%%%%%%j%%%%%%%%j%%%%%%%%%j%%%%%%%%%%%%j%%%%%%%%%%%%%%%%%%j%%%%%%%%%%%%
14580D8%%%%%%%%%%%%%%%%%%%%%%%%%%%%%%%%%%%%J%%%%%%%%%%%%%%%%%%%J%%%%%%%%%%%J%%%%
14506E1%%%%%%J%%%%%%%J%%%%%%%J%%%%%J%%%%%J%%%%%J%%%%J%%%%J%%%J%%%J%%%J%%%J%%J%%%
14432F4J%%J%%J%%J%J%%J%%J%J%%J%J%J%J%J%J%J%J%JJ%J%JJ%J%JJJ%JJ%JJJJ%JJJJJJJ%JJJKJ
14358A08JJJJJJKJJJKJJKJKJKJKKJKKKKJKKKLKKKLKKLLKLLLLLLLLMLMMMMMMMNNMNONONOOPOPPP
14284C22QQQRRRRJ0J1J1J1J2J2J3J3J4J5J5J6J7J7J8K0K0K1K2K3K5K5K7K9K9L2L2L5L6L9M0M2
14245A084M4M7M9N1N4N6N8O2O3O6O8P1P2P4P5P5P6P6P4P2P0O6O0N6M8M1L2K3J4Moj6k6l4m3n0
14208B606n6o2o7p0p2p4p6p5p5p5p2p2o9o7o5o3n9n8n5n2n1m7m6m3m1m0l7l5l4l2l0k9k7k6k5
14172G29k4k2k2k0j9j9j7j7j6j6j4j4j3j3j2j2j1j1j0j0rrqrpqpppopnoonnnmnmmmmmlmllllll
14120B47klklkkkkkjkkjkjjkjjjjjjjj%jj%j%j%%j%%%%%%%%%%%J%%J%J%J%JJJ%JJJJJJJKJJKJJ
14046B24KKJKKJKKKKLKKKLKLKLLLLLLLMLMMLMMNMMNMNNNONOOOOOPPPPPQQRQRRJ0RJ1J0J1J1J2
13980E46J2J3J3J4J4J5J5J6J6J7J8J9J9K0K2K2K2K4K5K6K8K8L0L1L3L4L6L7M0M1M3M6M8N0N3N5
13944A541N9O1O4O8P2P5P8Q3Q8R1R6J01J06J10J16J20J26J30J35J39J43J46J49J51J52J51J49
13916D500J45J41J33J24J13J00Q6O9N1L2J2pk7m6o5q1r7j10j21j31j39j44j49j50j52j51j49
13889C787j48j44j40j36j31j27j22j16j12j07j02r7r3q8q4q0p6p3o8o6o2n9n6n3n1m9m6m4m1m0
13858A176l8l7l4l3l2l0k9k7k7k5k4k3k2k2k0k0j9j8j7j7j6j5j5j4j4j3j3j2j2j1j1j1j0j0j0r
13821D66rrqqqqpppopoooononnnmnmnmmmmlmlmllllllllklkklkkkkkkkkjkkjkjjkjjjjjjjjjjj
13748B09j%j%jj%%j%%j%%%%%%%%%J%%J%%JJ%JJ%JJJJJJJKJJKJKKJKKKKKLKLKLLLLLLLMLMMMNMN
13675C02NNNNOOOOPPPPQQRRRJ0J0J0J1J2J2J2J3J4J5J5J5J7J7J9J9K0K1K2K4K4K6K7K8L0L2L3
13630I25L5L7L8M1M3M5M7N0N1N5N7N9O2O4O7O8P1P3P4P5P5P6P4P3P1O8O3N8N1M5L7K7J9Rkj1k1
13593B749l0l8m7n3o0o4o9p2p4p5p6p6p5p4p2p1o9o7o4o1o0n7n4n2m9m7m5m3m1l8l7l5l3l2l0
13557H09k9k7k6k5k3k3k1k0k0j8j8j7j6j6j4j4j4j3j2j2j2j1j0j0j0rrrqqqppppoooononnnnmn
13509B35mmmmmlmlmlllllllklklklkkkklkjkkkkkjkkjkjkjjkjkjjjkjjjjjjjjjjjjjjjjjj%jjj
13436I7j%jj%jjj%j%jj%j%jj%j%j%j%j%j%j%j%%j%j%j%%j%%j%%j%%j%%j%%j%%j%%%j%%%j%%%j%
13362F5%%j%%%%j%%%%j%%%%j%%%%%%j%%%%%j%%%%%%%j%%%%%%%%j%%%%%%%%%j%%%%%%%%%%%%%j%
13287E5%%%%%%%%%%%%%%%%%%%%%j%%%%%%%%%%%%%%%%%%%%%%%%%%%%%%%%%%%%%%%%%J%%%%%%%%%
13213E5%%%%%%%%%%%%%%J%%%%%%%%%%%%%%%J%%%%%%%%%%%J%%%%%%%%%%J%%%%%%%%J%%%%%%%J%%
13139F1%%%%%J%%%%%%J%%%%%J%%%%%J%%%%%J%%%%J%%%%%J%%%%J%%%J%%%%J%%%J%%%J%%%J%%%J%
13065G5%%J%%%J%%J%%%J%%J%%J%%J%%J%%J%%J%%J%J%%J%%J%J%%J%J%J%%J%J%J%J%J%J%J%J%J%J
12990A03%J%J%J%JJ%J%JJ%J%JJ%JJ%JJ%JJ%JJJ%JJJ%JJJJ%JJJJJJ%JJJJJJJJJJJJJJJJJJJJKJJ
12917A60JJJKJJJKJJKJJKJKJJKJKJKKJKJKKKJKKKJKKKKKKKKKKKLKKKLKKLKLKLLKLLKLLLLLLLML
12844C03LLMLMLMMMLMMMNMMMNMNNNMNONNNOONOOOOPOPPPPPPQPQQRQRRRRRJ0J0J0J1J0J1J1J2J2
12780G07J2J2J3J3J4J3J5J4J5J6J5J7J6J8J7J9J8K0K0K0K1K2K2K4K4K4K6K6K7K8K9L0L2L2L3L4
12743A458L6L7L8M0M1M3M5M6M8N0N1N4N6N9O1O3O6O9P2P5P8Q2Q6Q9R4R8J02J08J12J18J24J30
12711C729J36J43J50J58J66J75J83J93K03K14K24K36K48K61K74K87L01L16L31L46L60L75L90
12687I399M04M16M29M38M47M52M54M53M48M38M22M02L75L43L03K60K11J58J01M2j8p6j35j89
12663A5977k40k87l27l62l91m15m32m44m52m54m54m49m42m33m21m09l96l81l67l52l36l22l08
12639G103k93k79k66k54k41k29k18k07j97j87j78j70j61j53j46j40j32j26j21j14j10j04j00r6
12615B881r1q7q3q0p6p4p0o7o4o2o0n7n4n3n1m8m7m5m4m2m0l9l8l6l5l3l3l2l0l0k8k8k6k6k5
12579A147k4k4k3k2k1k1k0k0j9j8j8j7j7j7j6j5j5j5j4j4j4j3j3j3j2j2j1j2j1j1j0j1j0rj0rr
12542E87rrqrqqqpqpppppopooooonononnnnnmnnmnmmmmmmmmmlmmlmlllmlllllllklllklklklkk
12469B47lkklkkkkkkkkkkkkkjkkkjkkjkkjkjkjkjkjjkjjkjjkjjjkjjjjjkjjjjjjjjjjjjjjjjj%
12395A41jjjjjj%jjjj%jjj%jjj%jj%jj%jj%jj%j%jj%j%j%j%j%jj%j%%j%j%j%j%j%%j%j%j%%j%%
12322I8j%j%%j%%j%%%j%%j%%j%%%j%%%j%%%%j%%%%j%%%%j%%%%%%j%%%%%%%%%j%%%%%%%%%%%%%%
12248H4%%%%%%%J%%%%%%%%J%%%%J%%%J%%%J%%J%J%%J%J%J%JJ%JJ%JJ%JJJJJJJJJJJKJJKJKJKJK
12174A26KKKKKLKKLLLLLLLMMMMMNMNNOOOOPPPQQRRJ0J0J0J1J2J2J3J4J4J5J5J6J6J8J7J8J9J8
12120E40J9J9J9J8J8J7J6J5J3J1J0PNL%knprj2j3j4j6j7j8j8j9j9j9j9j8j9j7j8j6j7j5j5j4j4
12079C60j3j2j2j2j0j1rrrrqppppoononnmnmmmlmllmklllkklkkkkkkjkjkjkjkjjjjjjjjjjjjjj
12012I1%jj%jj%j%j%j%j%j%%j%%j%%j%%%%j%%%%%j%%%%%%%%%%%%%%%%%%%J%%%%%%J%%%J%%%J%%
11937H1J%%J%J%%J%J%JJ%J%JJ%JJ%JJJ%JJJJJJJJJJJKJJKJJKJKJKKJKKKKKKLKKLKLLLLLLLLMMM
11863A86MMMNMNNONOOOPPPQPRQRJ0J0J0J1J2J2J3J3J4J5J6J6J7J8J9K0K1K2K4K4K6K6K8L0L0L2
11816G97L3L4L5L6L7L7L8L8L7L7L6L5L3L0K7K5K0J6J1PKmqj3j7k1k6k8l1l3l6l6l7l8l8l7l8l6
11778I24l6l5l3l3l1l0k9k8k6k5k4k3k2k0k0j9j8j6j7j5j4j4j3j3j2j1j1j0j0rrrqqpppooooon
11734B17nnmnmmmmlmlllllllklkklkkkkkkjkkjkjkjjkjjjjkjjjjj%jjjj%jjj%j%jj%j%j%j%%j%
11661I0%j%%j%%%j%%%%%j%%%%%%%%%%%%%%%%%J%%%%J%%%J%%%J%%J%J%J%J%J%J%JJ%JJJ%JJJJJJ
11587A07JJJJJJJKJJKJJKKJKKJKKKKKLKKLKLLLLLLLMLMMMMNMNNNOOOOOPPQPQRRRJ0J0J1J2J2J2
11519C83J3J4J5J5J6J7J7J9J9K0K2K2K3K4K4K6K7K7K8K8K9K9L0K9K9K8K7K7K5K4K2K1J8J7J5J2
11483A181J1ROOLK%kloorj1j2j5j7j8k1k2k4k5k7k7k8k9k9l0k9k8k9k8k7k6k6k4k4k3k2k1k0j9
11441E11j9j7j7j6j5j4j4j3j2j2j1j1j0j0rrrqpqpopoononnmnmmmmmlmlllllklklkkkkkkkkjkk
11382A35jkjjkjjjkjjjjjj%jjjj%jj%jj%j%j%%j%j%%j%%%j%%%%j%%%%%%%%%%%%%%%%%J%%%%J%%
11309A04%J%%J%%J%J%J%%JJ%J%JJ%JJ%JJJ%JJJJJJJJJJJJKJJJKJKJKJKJKKKKKJLKKKKLKLKLLLL
11236A92LLLMLMMMMMMNNNNNONOPOPPPQQQRRJ0J0J0J1J2J2J2J4J4J4J6J6J7J7J9J9K1K2K2K4K5
11185F87K6K7K9L0L1L2L4L5L6L6L8L9L8L9L9L9L8L6L4L3K9K7K2J9J4J0M%nj0j5j9k2k6k8l1l3
11147A312l4l5l5l6l6l5l4l4l2l1l1k9k7k6k5k4k2k1k0j9j7j7j5j4j3j3j1j0j0qqppnnnllkkjj
11104E49J%KKKLMMNNPOQQRRJ1J1J1J3J4J4J5J7J7J9J9K1K2K4K4K6K8K9L1L3L5L6L9M0M3M5M8N0
11060A359N2N5N7O0O2O5O7P0P1P2P4P5P5P5P3P1O9O4O0N4M7M0L1K2J3Kpj7k6l6m3n1n7o3o7p1
11023B397p3p5p6p6p5p5p3p2o9o8o5o2o1n7n6n2n1m8m5m4m1l9l8l5l4l2l0k9k8k6k5k4k2k2k0
10987F79j9j9j8j6j6j6j4j4j3j3j2j2j1j0j0j0rrqqqqpopooonnnnmnmmlmlmllklklkkkjkkjjjj
10930B86jjj%j%%%%%J%J%JJJKJKJKKKLKLLLLMLMNMNNNOOOPPPQQRRJ0J0J1J1J2J2J3J4J4J6J5J7
10869E79J7J7J9J8K0J9K0K1K0K0J9K0J8J7J6J5J3J1ROMKjlnqrj1j2j4j4j6j5j6j6j6j6j5j5j4
10829G04j3j3j2j2j1j0rrpqoonmmlkkkj%%JKJLLLMMNNOPPPQRRRJ1J0J2J2J3J3J4J5J6J6J8J8J9
10775H45K0K1K2K3K4K6K7K8K9L1L3L4L6L7M0M2M4M6M8N1N4N7N9O3O6O9P3P7Q1Q5R0R4R8J04J08
10739B685J14J18J23J29J32J38J41J45J48J50J51J50J50J46J42J35J27J17J04R0P4N6L8J9kk1
10713E499m1n9p6r2j07j18j29j36j44j47j50j52j52j50j48j45j42j38j33j28j24j19j13j09j04
10687B443r9r4r0q5q2p7p4p0o6o4o0n7n5n2m9m7m5m2m1l9l7l5l4l2l1k9k8k7k6k4k4k3k1k1k0
10652G43j9j9j7j7j7j6j5j4j4j4j3j2j3j1j2j0j1j0j0rj0qrqqqqpppopoooononnnmnmnmmmmmlm
10599B82lmlllllllkllkklkkkkkkkkkjkjkkjjkjjjkjjjjjj%jjj%jj%j%j%%j%%%j%%%%%%%J%%%J
10526A91%J%J%J%JJJJJJJJJJJKJKJKJKKKKKKKLKLKLLLLLMLMLMMMNMNNNNOOOOOPPPQQQRRRJ0J0
10455D30J1J1J1J3J2J4J4J4J6J6J7J7J9J9K1K1K3K3K5K6K8K9L0L2L4L6L7L9M2M3M6M8N0N3N5N7
10419A432O0O3O5O7P0P1P3P4P6P5P5P5P2P0O6O2N6M9M2L4K5J5Onj4k4l3m1m9n5o2o6o9p3p4p6
10382B132p6p5p5p4p2p0o8o6o4o1n8n6n4n1m8m7m4m2m0l8l7l4l3l1l0k8k7k5k5k3k2k1k0j9j9
10346E59j7j7j6j5j5j4j3j3j2j2j1j1j0j0j0rrqrqppqopooooonnnnnmnmmmmmlmlmlllllllkllk
10289A56klkklkkkkkkjkkkjkkjkjkjkjjkjjjkjjjjjjkjjjjj%jjjjjjj%jjjj%jjj%jj%jj%j%jj%
10215F8j%jj%j%j%j%j%j%j%j%%j%j%j%%j%j%%j%%j%%j%%j%%j%%j%%j%%%j%%j%%%j%%%j%%%j%%%
10141D1j%%%j%%%%j%%%%j%%%%j%%%%j%%%%%j%%%%%j%%%%%j%%%%%%j%%%%%%j%%%%%%%j%%%%%%%j
10067B8%%%%%%%j%%%%%%%%%j%%%%%%%%j%%%%%%%%%%j%%%%%%%%%%%j%%%%%%%%%%%j%%%%%%%%%%%
9992B2%%j%%%%%%%%%%%%%j%%%%%%%%%%%%%%%%j%%%%%%%%%%%%%%%%j%%%%%%%%%%%%%%%%%%%j%%%
9917A7%%%%%%%%%%%%%%%%%%j%%%%%%%%%%%%%%%%%%%%%%%%j%%%%%%%%%%%%%%%%%%%%%%%%%%%%j%
9842A4%%%%%%%%%%%%%%%%%%%%%%%%%%%%%%j%%%%%%%%%%%%%%%%%%%%%%%%%%%%%%%%%%%%j%%%%%%
9767A2%%%%%%%%%%%%%%%%%%%%%%%%%%%%%%%%%%%%%j%%%%%%%%%%%%%%%%%%%%%%%%%%%%%%%%%%%%
9691A1%%%%%%%%%%%%%%%j%%%%%%%%%%%%%%%%%%%%%%%%%%%%%%%%%%%%%%%%%%%%%%%%%%%%%%%%%%
9616A0%%%%%j%%%%%%%%%%%%%%%%%%%%%%%%%%%%%%%%%%%%%%%%%%%%%%%%%%%%%%%%%%%%%%%%%%%%
9541I%%%%%%%%%j%%%%%%%%%%%%%%%%%%%%%%%%%%%%%%%%%%%%%%%%%%%%%%%%%%%%%%%%%%%%%%%%%
9465H%%%%%%%%%%%%%%%%%%%%%%%%%%%%%%%%%%%%j%%%%%%%%%%%%%%%%%%%%%%%%%%%%%%%%%%%%%%
9388G%%%%%%%%%%%%%%%%%%%%%%%%%%%%%%%%%%%%%%%%%%%%%%%%%%%%%%%%%%%%%%%%%%%%%%%%%%%
9312G%%%%%%%%%%%%%%%%%%%%%%j%%%%%%%%%%%%%%%%%%%%%%%%%%%%%%%%%%%%%%%%%%%%%%%%%%%%
9236F%%%%%%%%%%%%%%%%%%%%%%%%%%%%%%%%%%%%%%%%%%%%%%%%%%%%%%%%%%%%%%%%%%%%%%%%%%%
9159F%%%%%%%%%%%%%%%%%%%%%%%%%%%%%%%%%%%%%%%%%%%%%%%%%%%%%%%%%%%%%%%%%%%%%%j%%%%
9083E%%%%%%%%%%%%%%%%%%%%%%%%%%%%%%%%%%%%%%%%%%%%%%%%%%%%%%%%%%%%%%%%%%%%%%%%%%%
9007E%%%%%%%%%%%%%%%%%%%%%%%%%%%%%%%%%%%%%%%%%%%%%%%%%%%%%%%%%%%%%%%%%%%%%%%%%%%
8930E%%%%%%%%%%%%%%%%%%%%%%%%%%%%%%%%%%%%%%%%%%%%%%%%%%%%%%%%%%%%%%%%%%%%%%%%%%%
8854E%%%%%%%%%%%%%%%%%%%%%%%%%%%%%%%%%%%%%%%%%%%%%%%%%%%%%%%%%%%%%%%%%%%%%%%%%%%
8778E%%%%%%%%%%%%%%%%%%%%%%%%%%%%%%j%%%%%%%%%%%%%%%%%%%%%%%%%%%%%%%%%%%%%%%%%%%%
8702D%%%%%%%%%%%%%%%%%%%%%%%%%%%%%%%%%%%%%%%%%%%%%%%%%%%%%%%%%%%%%%%%%%%%%%%%%%%
8625D%%%%%%%%%%%%%%%%%%%%%%%%%%%%%%%%%%%%%%%%%%%%%%%%%%%%%%%%%%%%%%%%%%%%%%%%%%%
8549D%%%%%%%%%%%%%%%%%%%%%%%%%%%%%%%%%%%%%%%%%%%%%%%%%%%%%%%%%%%%%%%%%%%%%%%%%%%
8473D%%%%%%%%%%%%%%%%%%%%%%%%%%%%%%%%%%%%%%%%%%%%%%%%%%%%%%%%%%%%%%%%%%%%%%%%%%%
8396D%%%%%%%%%%%%%%%%%%%%%%%%%%%%%%%%%%%%%%%%%%%%%%%%%%%%%%%%%%%%%%%%%%%%%%%%%%%
8320D%%%%%%%%%%%%%%%%%%%%%%%%%%%%%%%%%%%%%%%%%%%%%%%%%%%%%%%%%%%%%%%%%%%%%%%%%%%
8244D%%%%%%%%%%%%%%%%%%%%%%%%%%%%%%%%%%%%%%%%%%%%%%%%%%%%%%%%%%%%%%%%%%%%%%%%%%%
8168D%%%%%%%%%%%%%%%%%%%%%%%%%%%%%%%%%%%%%%%%%%%%%%%%%%%%%%%%%%%%%%%%%%%%%%%%%%%
8091D%%%%%%%%%%%%%%%%%%%%%%%%%%%%%%%%%%%%%%%%%%%%%%%%%%%%%%%%%%%%%%%%%%%%%%%%%%%
8015D%%%%%%%%%%%%%%%%%%%%%%%%%%%%%%%%%%%%%%%%%%%%%%%%%%%%%%%%%%%%%%%%%%%%%%%%%%%
7939D%%%%%%%%%%%%%%%%%%%%%%%%%%%%%%%%%%%%%%%%%%%%%%%%%%%%%%%%%%%%%%%%%%%%%%%%%%%
7862D%%%%%%%%%%%%%%%%%%%%%%%%%%%%%%%%%%%%%%%%%%%%%%%%%%%%%%%%%%%%%%%%%%%%%%%%%%%
7786D%%%%%%%%%%%%%%%%%%%%%%%%%%%%%%%%%%%%%%%%%%%%%%%%%%%%%%%%%%%%%%%%%%%%%%%%%%%
7710D%%%%%%%%%%%%%%%%%%%%%%%%%%%%%%%%%%%%%%%%%%%%%%%%%%%%%%%%%%%%%%%%%%%%%%%%%%%
7633D%%%%%%%%%%%%%%%%%%%%%%%%%%%%%%%%%%%%%%%%%%%%%%%%%%%%%%%%%%%%%%%%%%%%%%%%%%%
7557D%%%%%%%%%%%%%%%%%%%%%%%%%%%%%%%%%%%%%%%%%%%%%%%%%%%%%%%%%%%%%%%%%%%%%%%%%%%
7481D%%%%%%%%%%%%%%%%%%%%%%%%%%%%%%%%%%%%%%%%%%%%%%%%%%%%%%%%%%%%%%%%%%%%%%%%%%%
7405D%%%%%%%%%%%%%%%%%%%%%%%%%%%%%%%%%%%%%%%%%%%%%%%%%%%%%%%%%%%%%%%%%%%%%%%%%%%
7328D%%%%%%%%%%%%%%%%%%%%%%%%%%%%%%%%%%%%%%%%%%%%%%%%%%%%%%%%%%%%%%%%%%%%%%%%%%%
7252D%%%%%%%%%%%%%%%%%%%%%%%%%%%%%%%%%%%%%%%%%%%%%%%%%%%%%%%%%%%%%%%%%%%%%%%%%%%
7176D%%%%%%%%%%%%%%%%%%%%%%%%%%%%%%%%%%%%%%%%%%%%%%%%%%%%%%%%%%%%%%%%%%%%%%%%%%%
7099D%%%%%%%%%%%%%%%%%%%%%%%%%%%%%%%%%%%%%%J%%%%%%%%%%%%%%%%%%%%%%%%%%%%%%%%%%%%
7023E%%%%%%%%%%%%%%%%%%%%%%%%%%%%%%%%%%%%%%%%%%%%%%%%%%%%%%%%%%%%%%%%%%%%%%%%%%%
6947E%%%%%%%%%%%%%%%%%%%%%%%%%%%%%%%%%%%%%%%%%%%%%%%%%%%%%%%%%%%%%%%%%%%%%%%%%%%
6870E%%%%%%%%%%%%%%%%%%%%%%%%%%%%%%%%%%%%%%%%%%%%%%%%%%%%%%%%%%%%%%%%%%%%%%%%%%%
6794E%%%%%%%%%%%%%%%%%%%%%%%%%%%%%%%%%%%%%%%%%%%%%%%%%%%%%%%%%%%%%%%%%%%%%%%%%%%
6718E%%%%%%%%%%%%%%%%%%J%%%%%%%%%%%%%%%%%%%%%%%%%%%%%%%%%%%%%%%%%%%%%%%%%%%%%%%%
6642F%%%%%%%%%%%%%%%%%%%%%%%%%%%%%%%%%%%%%%%%%%%%%%%%%%%%%%%%%%%%%%%%%%%%%%%%%%%
6565F%%%%%%%%%%%%%%%%%%%%%%%%%%%%%%%%%%%%%%%%%%%%%%%%%%%%%%%%%%%%%%%%%%%%%%%%%%%
6489F%%%%%%%%%%%J%%%%%%%%%%%%%%%%%%%%%%%%%%%%%%%%%%%%%%%%%%%%%%%%%%%%%%%%%%%%%%%
6413G%%%%%%%%%%%%%%%%%%%%%%%%%%%%%%%%%%%%%%%%%%%%%%%%%%%%%%%%%%%%%%%%%%%%%%%%%%%
6336G%%%%%%%%%%%%%%%%%%J%%%%%%%%%%%%%%%%%%%%%%%%%%%%%%%%%%%%%%%%%%%%%%%%%%%%%%%%
6260H%%%%%%%%%%%%%%%%%%%%%%%%%%%%%%%%%%%%%%%%%%%%%%%%%%%%%%%%%%%%%%%%J%%%%%%%%%%
6184I%%%%%%%%%%%%%%%%%%%%%%%%%%%%%%%%%%%%%%%%%%%%%%%%%%%%%%%%%%%%%%%%%%%%%%%%%%%
6108I%%%%%%%%%%%J%%%%%%%%%%%%%%%%%%%%%%%%%%%%%%%%%%%%%%%%%%%%%%%%%%%%%%%%%%%%%%%
6031A0%%%%%%%%%%%%%%%%J%%%%%%%%%%%%%%%%%%%%%%%%%%%%%%%%%%%%%%%%%%%%%%%%%%%%%%%%%
5956A1%%%%%%%%%%J%%%%%%%%%%%%%%%%%%%%%%%%%%%%%%%%%%%%%%%%%%%%%%%%%%%%%%%%%J%%%%%
5881A3%%%%%%%%%%%%%%%%%%%%%%%%%%%%%%%%%%%%%%%%%%%%%%J%%%%%%%%%%%%%%%%%%%%%%%%%%%
5805A4%%%%%%%%%%%%%%%%%J%%%%%%%%%%%%%%%%%%%%%%%%%%%%%%%%%%%%%%%J%%%%%%%%%%%%%%%%
5730A6%%%%%%%%%%%%%%%%%%%%J%%%%%%%%%%%%%%%%%%%%%%%%%%%%%%%%J%%%%%%%%%%%%%%%%%%%%
5655A8%%%%%%%%%J%%%%%%%%%%%%%%%%%%%%%%%%%%%J%%%%%%%%%%%%%%%%%%%%%%%%J%%%%%%%%%%%
5580B1%%%%%%%%%%%%J%%%%%%%%%%%%%%%%%%%%%J%%%%%%%%%%%%%%%%%%%J%%%%%%%%%%%%%%%%%%J
5504B5%%%%%%%%%%%%%%%%%J%%%%%%%%%%%%%%%%J%%%%%%%%%%%%%%%J%%%%%%%%%%%%%%J%%%%%%%%
5429B9%%%%%J%%%%%%%%%%%%J%%%%%%%%%%%%J%%%%%%%%%%%%J%%%%%%%%%%J%%%%%%%%%%J%%%%%%%
5354C5%%%J%%%%%%%%%J%%%%%%%%%J%%%%%%%%J%%%%%%%%J%%%%%%%%J%%%%%%%J%%%%%%%J%%%%%%%
5278D3J%%%%%%J%%%%%%%J%%%%%%J%%%%%J%%%%%%J%%%%%J%%%%%J%%%%%J%%%%%J%%%%%J%%%%J%%%
5203E5%%J%%%%J%%%%J%%%%J%%%J%%%%J%%%%J%%%J%%%J%%%%J%%%J%%%J%%%J%%J%%%J%%%J%%%J%%
5128G2J%%%J%%J%%J%%J%%%J%%J%%J%%J%%J%%J%%J%J%%J%%J%J%%J%%J%J%%J%J%J%%J%J%J%%J%J%
5053I9J%J%J%J%J%J%J%J%J%J%J%J%J%JJ%J%J%JJ%J%JJ%JJ%J%JJ%JJ%JJ%JJJ%JJ%JJJ%JJJJ%JJJ
4977A45J%JJJJJJ%JJJJJJJJJJJJJJJJJJJJJJJJJJJJKJJJJJKJJJKJJJKJJKJJKJKJJKJKJKJKKJKJ
4903B29KKJKKJKKKKJKKKKKKKKKKKKKKKKLKKKLKLKKLKLKLLKLLKLLLLLLLLLLLLMLLMLMLMMLMMMLM
4829D17MNMMMMNMNMNNNMNNONNNONOONOOOOPOPOPPPPPPQPQQQQQRQRRRRJ0J0RJ0J1J0J1J0J1J2J1
4765H53J2J2J2J2J3J3J3J4J4J4J4J5J5J6J5J7J6J7J7J8J8J8J9K0K0K0K1K1K2K3K3K3K5K5K5K6
4728A491K7K8K8K9L0L1L2L2L4L4L5L7L7L9M0M1M2M4M5M6M8M9N1N3N4N6N8O1O2O4O7O8P2P4P6Q0
4691C195Q2Q6Q9R2R6J00J03J08J12J17J21J27J32J38J44J50J56J64J71J79J87J95K05K15K25
4666F689K36K48K59K73K86L00L16L32L49L66L86M06M26M49M71M96N21N48N74O03O31O61O91P21
4642A7238P50P79Q07Q33Q56Q77Q93R04R09R07Q95Q76Q46Q03P51O86O08N21M23L16K03Q6l4j52
4617C2581k68l77m79n72o54p23p82q29q64q88r03r09r07q99q84q66q43q19p91p63p34p03o74
4594A5450o45o15n86n59n33n07m82m58m36m15l94l75l56l40l22l07k93k78k65k53k40k30k19
4570F342k09k00j91j82j75j66j60j53j46j41j34j29j24j19j14j09j06j01r8r3r1q7q3q1p8p5p3
4543B924p0o7o6o3o1n9n7n5n3n2n0m8m7m6m4m3m1m1l9l8l7l6l5l3l3l2l2l0k9k9k8k7k7k5k6k4
4506A401k4k3k3k2k2k1k1k0j9j9j9j8j8j8j7j6j7j6j5j5j5j5j4j4j4j3j3j3j3j2j2j2j1j2j1j1
4470H13j1j0j0j0j0j0rj0rrrqrqrqqpqpqppppppopooooooonononnnnnnnnnmnmnmmnmmmmmmlmmm
4403C92lmlmlmlllmlllllllllklllkllklklkklklkkklkkkkkkklkkjkkkkkkkjkkkjkkjkkjkjkkj
4328B19kjkjjkjkjjkjkjjjkjjkjjjjkjjjjjjkjjjjjjjjjjjjjjjjjjjjjjj%jjjjjj%jjjjj%jjjj
4254A39%jjj%jj%jjj%jj%jj%jj%jj%jj%j%jj%j%jj%j%j%jj%j%j%j%j%j%j%j%j%j%j%j%j%j%j%%
4180I7j%j%j%%j%j%j%%j%j%%j%%j%j%%j%%j%j%%j%%j%%j%%j%%j%%j%%j%%%j%%j%%j%%%j%%j%%%
4105G1j%%%j%%j%%%j%%%j%%%j%%%j%%%j%%%%j%%%j%%%%j%%%j%%%%j%%%%j%%%%j%%%%j%%%%j%%%
4029E4%%j%%%%j%%%%%j%%%%%j%%%%%j%%%%%j%%%%%%j%%%%%j%%%%%%j%%%%%%%j%%%%%%j%%%%%%%
3954D3j%%%%%%%j%%%%%%%j%%%%%%%j%%%%%%%%j%%%%%%%%j%%%%%%%%%j%%%%%%%%%j%%%%%%%%%%j
3879C4%%%%%%%%%%j%%%%%%%%%%j%%%%%%%%%%%j%%%%%%%%%%%%j%%%%%%%%%%%%j%%%%%%%%%%%%%j
3803B8%%%%%%%%%%%%%%j%%%%%%%%%%%%%%j%%%%%%%%%%%%%%%%j%%%%%%%%%%%%%%%%j%%%%%%%%%%
3728B4%%%%%%%%j%%%%%%%%%%%%%%%%%%%j%%%%%%%%%%%%%%%%%%%%j%%%%%%%%%%%%%%%%%%%%%%j%
3653B0%%%%%%%%%%%%%%%%%%%%%%j%%%%%%%%%%%%%%%%%%%%%%%%%%j%%%%%%%%%%%%%%%%%%%%%%%%
3578A8%%%%j%%%%%%%%%%%%%%%%%%%%%%%%%%%%%%j%%%%%%%%%%%%%%%%%%%%%%%%%%%%%%%%%%j%%%
3502A5%%%%%%%%%%%%%%%%%%%%%%%%%%%%%%%%%%j%%%%%%%%%%%%%%%%%%%%%%%%%%%%%%%%%%%%%%%
3427A4%%%j%%%%%%%%%%%%%%%%%%%%%%%%%%%%%%%%%%%%%%%%%%%%%%%j%%%%%%%%%%%%%%%%%%%%%%
3352A2%%%%%%%%%%%%%%%%%%%%%%%%%%%%%%%j%%%%%%%%%%%%%%%%%%%%%%%%%%%%%%%%%%%%%%%%%%
3276A1%%%%%%%%%%%%%%%%%%%j%%%%%%%%%%%%%%%%%%%%%%%%%%%%%%%%%%%%%%%%%%%%%%%%%%%%%%
3201A0%%%%%%%%%%%%%%%%%j%%%%%%%%%%%%%%%%%%%%%%%%%%%%%%%%%%%%%%%%%%%%%%%%%%%%%%%%
3126I%%%%%%%%%%%%%%%%%%%%%%%%%%%j%%%%%%%%%%%%%%%%%%%%%%%%%%%%%%%%%%%%%%%%%%%%%%%
3050H%%%%%%%%%%%%%%%%%%%%%%%%%%%%%%%%%%%%%%%%%%%%%%%%%%%%%%j%%%%%%%%%%%%%%%%%%%%
2973G%%%%%%%%%%%%%%%%%%%%%%%%%%%%%%%%%%%%%%%%%%%%%%%%%%%%%%%%%%%%%%%%%%%%%%%%%%%
2897G%%%%%%%%%%%%%%%%%%%%%%%%%%%%%%j%%%%%%%%%%%%%%%%%%%%%%%%%%%%%%%%%%%%%%%%%%%%
2821F%%%%%%%%%%%%%%%%%%%%%%%%%%%%%%%%%%%%%%%%%%%%%%%%%%%%%%%%%%%%%%%%%%%%%%%%%%%
2744F%%%%%%%%%%%%%%%%%%%%%%%%%%%%%%%%%%%%%%%%%j%%%%%%%%%%%%%%%%%%%%%%%%%%%%%%%%%
2668E%%%%%%%%%%%%%%%%%%%%%%%%%%%%%%%%%%%%%%%%%%%%%%%%%%%%%%%%%%%%%%%%%%%%%%%%%%%
2592E%%%%%%%%%%%%%%%%%%%%%%%%%%%%%%%%%%%%%%%%%%%%%%%%%%%%%%%%%%%%%%%%%%%%%%%%%%%
2516E%%%%%%%%%%%%%%%%%%%%%%%%%%%%%%j%%%%%%%%%%%%%%%%%%%%%%%%%%%%%%%%%%%%%%%%%%%%
2439D%%%%%%%%%%%%%%%%%%%%%%%%%%%%%%%%%%%%%%%%%%%%%%%%%%%%%%%%%%%%%%%%%%%%%%%%%%%
2363D%%%%%%%%%%%%%%%%%%%%%%%%%%%%%%%%%%%%%%%%%%%%%%%%%%%%%%%%%%%%%%%%%%%%%%%%%%%
2287D%%%%%%%%%%%%%%%%%%%%%%%%%%%%%%%%%%%%%%%%%%%%%%%%%%%%%%%%%%%%%%%%%%%%%%%%%%%
2210D%%%%%%%%%%%%%%%%%%%%%%%%%%%%%%%%%%%%%%%j%%%%%%%%%%%%%%%%%%%%%%%%%%%%%%%%%%%
2134C%%%%%%%%%%%%%%%%%%%%%%%%%%%%%%%%%%%%%%%%%%%%%%%%%%%%%%%%%%%%%%%%%%%%%%%%%%%
2058C%%%%%%%%%%%%%%%%%%%%%%%%%%%%%%%%%%%%%%%%%%%%%%%%%%%%%%%%%%%%%%%%%%%%%%%%%%%
1981C%%%%%%%%%%%%%%%%%%%%%%%%%%%%%%%%%%%%%%%%%%%%%%%%%%%%%%%%%%%%%%%%%%%%%%%%%%%
1905C%%%%%%%%%%%%%%%%%%%%%%%%%%%%%%%%%%%%%%%%%%%%%%%%%%%%%%%%%%%%%%%%%%%%%%%%%%%
1829C%%%%%%%%%%%%%%%%%%%%%%%%%%%%%%%%%%%%%%%%%%%%%%%%%%%%%%%%%%%%%%%%%%%%%%%%%%%
1753C%%%%%%%%%%%%%%%%%%%%%%%%%%%%%%%%%%%%%%%%%%%%%%%%%%%%%%%%%%%%%%%%%%%%%%%%%%%
1676C%%%%%%%%%j%%%%%%%%%%%%%%%%%%%%%%%%%%%%%%%%%%%%%%%%%%%%%%%%%%%%%%%%%%%%%%%%%
1600B%%%%%%%%%%%%%%%%%%%%%%%%%%%%%%%%%%%%%%%%%%%%%%%%%%%%%%%%%%%%%%%%%%%%%%%%%%%
1524B%%%%%%%%%%%%%%%%%%%%%%%%%%%%%%%%%%%%%%%%%%%%%%%%%%%%%%%%%%%%%%%%%%%%%%%%%%%
1447B%%%%%%%%%%%%%%%%%%%%%%%%%%%%%%%%%%%%%%%%%%%%%%%%%%%%%%%%%%%%%%%%%%%%%%%%%%%
1371B%%%%%%%%%%%%%%%%%%%%%%%%%%%%%%%%%%%%%%%%%%%%%%%%%%%%%%%%%%%%%%%%%%%%%%%%%%%
1295B%%%%%%%%%%%%%%%%%%%%%%%%%%%%%%%%%%%%%%%%%%%%%%%%%%%%%%%%%%%%%%%%%%%%%%%%%%%
1219B%%%%%%%%%%%%%%%%%%%%%%%%%%%%%%%%%%%%%%%%%%%%%%%%%%%%%%%%%%%%%%%%%%%%%%%%%%%
1142B%%%%%%%%%%%%%%%%%%%%%%%%%%%%%%%%%%%%%%%%%%%%%%%%%%%%%%%%%%%%%%%%%%%%%%%%%%%
1066B%%%%%%%%%%%%%%%%%%%%%%%%%%%%%%%%%%%%%%%%%%%%%%%%%%%%%%%%%%%%%%%%%%%%%%%%%%%
990B%%%%%%%%%%%%%%%%%%%%%%%%%%%%%%%%%%%%%%%%%%%%%%%%%%%%%%%%%%%%%%%%%%%%%%%%%%%%
912B%%%%%%%%%%%%%%%%%%%%%%%%%%%%%%%%%%%%%%%%%%%%%%%%%%%%%%%%%%%%%%%%%%%%%%%%%%%%
835B%%%%%%%%%%%%%%%%%%%%%%%%%%%%%%%%%%%%%%%%%%%%%%%%%%%%%%%%%%%%%%%%%%%%%%%%%%%%
758B%%%%%%%%%%%%%%%%%%%%%%%%%%%%%%%%%%%%%%%%%%%%%%%%%%%%%%%%%%%%%%%%%%%%%%%%%%%%
680B%%%%%%%%%%%%%%%%%%j%%%%%%%%%%%%%%%%%%%%%%%%%%%%%%%%%%%%%%%%%%%%%%%%%%%%%%%%%
603A%%%%%%%%%%%%%%%%%%%%%%%%%%%%%%%%%%%%%%%%%%%%%%%%%%%%%%%%%%%%%%%%%%%%%%%%%%%%
526A%%%%%%%%%%%%%%%%%%%%%%%%%%%%%%%%%%%%%%%%%%%%%%%%%%%%%%%%%%%%%%%%%%%%%%%%%%%%
448A%%%%%%%%%%%%%%%%%%%%%%%%%%%%%%%%%%%%%%%%%%%%%%%%%%%%%%%%%%%%%%%%%%%%%%%%%%%%
371A%%%%%%%%%%%%%%%%%%%%%%%%%%%%%%%%%%%%%%%%%%%%%%%%%%%%%%%%%%%%%%%%%%%%%%%%%%%%
294A%%%%%%%%%%%%%%%%%%%%%%%%%%%%%%%%%%%%%%%%%%%%%%%%%%%%%%%%%%%%%%%%%%%%%%%%%%%%
217A%%%%%%%%%%%%%%%%%%%%%%%%%%%%%%%%%%%%%%%%%%%%%%%%%%%%%%%%%%%%%%%%%%%%%%%%%%%%
139A%%%%%%%%%%%%%%%%%%%%%%%%%%%%%%%%%%%%%%%%%%%%%%%%%%%%%%%%%%%%%%%%%%%%%%%%%%%%
62A%%%%%%%%%%%%%%%%%%%%%%%%%%%%%%%%%%%%%%%%%%%%%%%%%%%%%%%%%%%%%%%%%%%%%%%%%%%%%
-16A%%%%%%%%%%%%%%%%%%%%%%%%%%%%%%%%%%%%%%%%%%%%%%%%%%%%%%%%%%%%%%%%%%%%%%%%%%%%
-94A%%%%%%%%%%%%%%%%%%%%%%%%%%%%%%%%%%%%%%%%%%%%%%%%%%%%%%%%%%%%%%%%%%%%%%%%%%%%
-171A%%%%%%%%%%%%%%%%%%%%%%%%%%%%%%%%%%%%%%%%%%%%%%%%%%%%%%%%%%%%%%%%%%%%%%%%%%%
-247A%%%%%%%%%%%%%%%%%%%%%%%%%%%%%%%%%%%%%%%%%%%%%%%%%%%%%%%%%%%%%%%%%%%%%%%%%%%
-324A%%%%%%%%%%%%%%%%%%%%%%%%%%%%%%%%%%%%%%%%%%%%%%%%%%%%%%%%%%%%%%%%%%%%%%%%%%%
-400A%%%%%%%%%%%%%%%%%%%%%%%%%%%%%%%%%%%%%%%%%%%%%%%%%%%%%%%%%%%%%%%%%%%%%%%%%%%
-476A%%%%%%%%%%%%%%%%%%%%%%%%%%%%%%%%%%%%%%%%%%%%%%%%%%%%%%%%%%%%%%%%%%%%%%%%%%%
-553A%%%%%%%%%%%%%%%%%%%%%%%%%%%%%%%%%%%%%%%%%%%%%%%%%%%%%%%%%%%%%%%%%%%%%%%%%%%
-629A%%%%%%%%%%%%%%%%%%%%%%%%%%%%%%%%%%%%%%%%%%%%%%%%%%%%%%%%%%%%%%%%%%%%%%%%%%%
-705A%%%%%%%%%%%%%%%%%%%%%%%%%%%%%%%%%%%%%%%%%%%%%%%%%%%%%%%%%%%%%%%%%%%%%%%%%%%
-781A%%%%%%%%%%%%%%%%%%%%%%%%%%%%%%%%%%%%%%%%%%%%%%%%%%%%%%%%%%%%%%%%%%%%%%%%%%%
-858A%%%%%%%%%%%%%%%%%%%%%%%%%%%%%%%%%%%%%%%%%%%%%%%%%%%%%%%%%%%%%%%%%%%%%%%%%%%
-934A%%%%%%%%%%%%%%%%%%%%%%%%%%%%%%%%%%%%%%%%%%%%%%%%%%%%%%%%%%%%%%%%%%%%%%%%%%%
-1010A%%%%%%%%%%%%%%%%%%%%%%%%%%%%%%%%%%%%%%%%%%%%%%%%%%%%%%%%%%%%%%%%%%%%%%%%%%
-1086A%%%%%%%%%%%%%%%%%%%%%%%%%%%%%%%%%%%%%%%%%%%%%%%%%%%%%%%%%%%%%%%%%%%%%%%%%%
-1161A%%%%%%%%%%%%%%%%%%%%%%%%%%%%%%%%%%%%%%%%%%%%%%%%%%%%%%%%%%%%%%%%%%%%%%%%%%
-1236A%%%%%%%%%%%%%%%%%%%%%%%%%%%%%%%%%%%%%%%%%%%%%%%%%%%%%%%%%%%%%%%%%%%%%%%%%%
-1311A%%%%%%%%%%%%%%%%%%%%%%%%%%%%%%%%%%%%%%%%%%%%%%%%%%%%%%%%%%%%%%%%%%%%%%%%%%
-1387A%%%%%%%%%%%%%%%%%%%%%%%%%%%%%%%%%%%%%%%%%%%%%%%%%%%%%%%%%%%%%%%%%%%%%%%%%%
-1462A%%%%%%%%%%%%%%%%%%%%%%%%%%%%%%%%%%%%%%%%%%%%%%%%%%%%%%%%%%%%%%%%%%%%%%%%%%
-1537A%%%%%%%%%%%%%%%%%%%%%%%%%%%%%%%%%%%%%%%%%%%%%%%%%%%%%%%%%%%%%%%%%%%%%%%%%%
-1613A%%%%%%%%%%%%%%%%%%%%%%%%%%%%%%%%%%%%%%%%%%%%%%%%%%%%%%%%%%%%%%%%%%%%%%%%%%
-1688A%%%%%%%%%%%%%%%%%%%%%%%%%%%%%%%%%%%%%%%%%%%%%%%%%%%%%%%%%%%%%%%%%%%%%%%%%%
-1763A%%%%%%%%%%%%%%%%%%%%%%%%%%%%%%%%%%%%%%%%%%%%%%%%%%%%%%%%%%%%%%%%%%%%%%%%%%
-1838A%%%%%%%%%%%%%%%%%%%%%%%%%%%%%%%%%%%%%%%%%%%%%%%%%%%%%%%%%%%%%%%%%%%%%%%%%%
-1914A%%%%%%%%%%%%%%%%%%%%%%%%%%%%%%%%%%%%%%%%%%%%%%%%%%%%%%%%%%%%%%%%%%%%%%%%%%
-1989A%%%%%%%%%%%%%%%%%%%%%%%%%%%%%%%%%%%%%%%%%%%%%%%%%%%%%%%%%%%%%%%%%%%%%%%%%%
-2064A%%%%%%%%%%%%%%%%%%%%%%%%%%%%%%%%%%%%%%%%%%%%%%%%%%%%%%%%%%%%%%%%%%%%%%%%%%
-2139A%%%%%%%%%%%%%%%%%%%%%%%%%%%%%%%%%%%%%%%%%%%%%%%%%%%%%%%%%%%%%%%%%%%%%%%%%%
-2215A%%%%%%%%%%%%%%%%%%%%%%%%%%%%%%%%%%%%%%%%%%%%%%%%%%%%%%%%%%%%%%%%%%%%%%%%%%
-2290A%%%%%%%%%%%%%%%%%%%%%%%%%%%%%%%%%%%%%%%%%%%%%%%%%%%%%%%%%%%%%%%%%%%%%%%%%%
-2365A%%%%%%%%%%%%%%%%%%%%%%%%%%%%%%%%%%%%%%%%%%%%%%%%%%%%%%%%%%%%%%%%%%%%%%%%%%
-2441A%%%%%%%%%%%%%%%%%%%%%%%%%%%%%%%%%%%%%%%%%%%%%%%%%%%%%%%%%%%%%%%%%%%%%%%%%%
-2516A%%%%%%%%%%%%%%%%%%%%%%%%%%%%%%%%%%%%%%%%%%%%%%%%%%%%%%%%%%%%%%%%%%%%%%%%%%
-2591A%%%%%%%%%%%%%%%%%%%%%%%%%%%%%%%%%%%%%%%%%%%%%%%%%%%%%%%%%%%%%%%%%%%%%%%%%%
-2666A%%%%%%%%%%%%%%%%%%%%%%%%%%%%%%%%%%%%%%%%%%%%%%%%%%%%%%%%%%%%%%%%%%%%%%%%%%
-2742A%%%%%%%%%%%%%%%%%%%%%%%%%%%%%%%%%%%%%%%%%%%%%%%%%%%%%%%%%%%%%%%%%%%%%%%%%%
-2817A%%%%%%%%%%%%%%%%%%%%%%%%%%%%%%%%%%%%%%%%%%%%%%%%%%%%%%%%%%%%%%%%%%%%%%%%%%
-2892A%%%%%%%%%%%%%%%%%%%%%%%%%%%%%%%%%%%%%%%%%%%%%%%%%%%%%%%%%%%%%%%%%%%%%%%%%%
-2968A%%%%%%%%%%%%%%%%%%%%%%%%%%%%%%%%%%%%%%%%%%%%%%%%%%%%%%%%%%%%%%%%%%%%%%%%%%
-3043A%%%%%%%%%%%%%%%%%%%%%%%%%%%%%%%%%%%%%%%%%%%%%%%%%%%%%%%%%%%%%%%%%%%%%%%%%%
-3118A%%%%%%%%%%%%%j%%%%%%%%%%%%%%%%%%%%%%%%%%%%%%%%%%%%%%%%%%%%%%%%%%%%%%%%%%%%
-3193@%%%%%%%%%%%%%%%%%%%%%%%%%%%%%%%%%%%%%%%%%%%%%%%%%%%%%%%%%%%%%%%%%%%%%%%%%%
-3269@%%%%%%%%%%%%%%%%%%%%%%%%%%%%%%%%%%%%%%%%%%%%%%%%%%%%%%%%%%%%%%%%%%%%%%%%%%
-3344@%%%%%%%%%%%%%%%%%%%%%%%%%%%%%%%%%%%%%%%%%%%%%%%%%%%%%%%%%%%%%%%%%%%%%%%%%%
-3419@%%%%%%%%%%%%%%%%%%%%%%%%%%%%%%%%%%%%%%%%%%%%%%%%%%%%%%%%%%%%%%%%%%%%%%%%%%
-3494@%%%%%%%%%%%%%%%%%%%%%%%%%%%%%%%%%%%%%%%%%%%%%%%%%%%%%%%%%%%%%%%%%%%%%%%%%%
-3570@%%%%%%%%%%%%%%%%%%%%%%%%%%%%%%%%%%%%%%%%%%%%%%%%%%%%%%%%%%%%%%%%%%%%%%%%%%
-3645@%%%%%%%%%%%%%%%%%%%%%%%%%%%%%%%%%%%%%%%%%%%%%%%%%%%%%%%%%%%%%%%%%%%%%%%%%%
-3720@%%%%%%%%%%%%%%%%%%%%%%%%%%%%%%%%%%%%%%%%%%%%%%%%%%%%%%%%%%%%%%%%%%%%%%%%%%
-3796@%%%%%%%%%%%%%%%%%%%%%%%%%%%%%%%%%%%%%%%%%%%%%%%%%%%%%%%%%%%%%%%%%%%%%%%%%%
-3871@%%%%%%%%%%%%%%%%%%%%%%%%%%%%%%%%%%%%%%%%%%%%%%%%%%%%%%%%%%%%%%%%%%%%%%%%%%
-3946@%%%%%%%%%%%%%%%%%%%%%%%%%%%%%%%%%%%%%%%%%%%%%%%%%%%%%%%%%%%%%%%%%%%%%%%%%%
-4021@%%%%%%%%%%%%%%%%%%%%%%%%%%%%%%%%%%%%%%%%%%%%%%%%%%%%%%%%%%%%%%%%%%%%%%%%%%
-4097@%%%%%%%%%%%%%%%%%%%%%%%%%%%%%%%%%%%%%%%%%%%%%%%%%%%%%%%%%%%%%%%%%%%%%%%%%%
-4172@%%%%%%%%%%%%%%%%%%%%%%%%%%%%%%%%%%%%%%%%%%%%%%%%%%%%%%%%%%%%%%%%%%%%%%%%%%
-4247@%%%%%%%%%%%%%%%%%%%%%%%%%%%%%%%%%%%%%%%%%%%%%%%%%%%%%%%%%%%%%%%%%%%%%%%%%%
-4323@%%%%%%%%%%%%%%%%%%%%%%%%%%%%%%%%%%%%%%%%%%%%%%%%%%%%%%%%%%%%%%%%%%%%%%%%%%
-4398@%%%%%%%%%%%%%%%%%%%%%%%%%%%%%%%%%%%%%%%%%%%%%%%%%%%%%%%%%%%%%%%%%%%%%%%%%%
-4473@%%%%%%%%%%%%%%%%%%%%%%%%%%%%%%%%%%%%%%%%%%%%%%%%%%%%%%%%%%%%%%%%%%%%%%%%%%
-4548@%%%%%%%%%%%%%%%%%%%%%%%%%%%%%%%%%%%%%%%%%%%%%%%%%%%%%%%%%%%%%%%%%%%%%%%%%%
-4624@%%%%%%%%%%%%%%%%%%%%%%%%%%%%%%%%%%%%%%%%%%%%%%%%%%%%%%%%%%%%%%%%%%%%%%%%%%
-4699@%%%%%%%%%%%%%%%%%%%%%%%%%%%%%%%%%%%%%%%%%%%%%%%%%%%%%%%%%%%%%%%%%%%%%%%%%%
-4774@%%%%%%%%%%%%%%%%%%%%%%%%%%%%%%%%%%%%%%%%%%%%%%%%%%%%%%%%%%%%%%%%%%%%%%%%%%
-4849@%%%%%%%%%%%%%%%%%%%%%%%%%%%%%%%%%%%%%%%%%%%%%%%%%%%%%%%%%%%%%%%%%%%%%%%%%%
-4925@%%%%%%%%%%%%%%%%%%%%%%%%%%%%%%%%%%%%%%%%%%%%%%%%%%%%%%%%%%%%%%%%%%%%%%%%%%
-5000@%%%%%%%%%%%%%%%%%%%%%%%%%%%%%%%%%%%%%%%%%%%%%%%%%%%%%%%%%%%%%%%%%%%%%%%%%%
-5075@%%%%%%%%%%%%%%%%%%%%%%%%%%%%%%%%%%%%%%%%%%%%%%%%%%%%%%%%%%%%%%%%%%%%%%%%%%
-5151@%%%%%%%%%%%%%%%%%%%%%%%%%%%%%%%%%%%%%%%%%%%%%%%%%%%%%%%%%%%%%%%%%%%%%%%%%%
-5226@%%%%%%%%%%%%%%%%%%%%%%%%%%%%%%%%%%%%%%%%%%%%%%%%%%%%%%%%%%%%%%%%%%%%%%%%%%
-5301@%%%%%%%%%%%%%%%%%%%%%%%%%%%%%%%%%%%%%%%%%%%%%%%%%%%%%%%%%%%%%%%%%%%%%%%%%%
-5376@%%%%%%%%%%%%%%%%%%%%%%%%%%%%%%%%%%%%%%%%%%%%%%%%%%%%%%%%%%%%%%%%%%%%%%%%%%
-5452@%%%%%%%%%%%%%%%%%%%%%%%%%%%%%%%%%%%%%%%%%%%%%%%%%%%%%%%%%%%%%%%%%%%%%%%%%%
-5527@%%%%%%%%%%%%%%%%%%%%%%%%%%%%%%%%%%%%%%%%%%%%%%%%%%%%%%%%%%%%%%%%%%%%%%%%%%
-5602@%%%%%%%%%%%%%%%%%%%%%%%%%%%%%%%%%%%%%%%%%%%%%%%%%%%%%%%%%%%%%%%%%%%%%%%%%%
-5678@%%%%%%%%%%%%%%%%%%%%%%%%%%%%%%%%%%%%%%%%%%%%%%%%%%%%%%%%%%%%%%%%%%%%%%%%%%
-5753@%%%%%%%%%%%%%%%%%%%%%%%%%%%%%%%%%%%%%%%%%%%%%%%%%%%%%%%%%%%%%%%%%%%%%%%%%%
-5828@%%%%%%%%%%%%%%%%%%%%%%%%%%%%%%%%%%%%%%%%%%%%%%%%%%%%%%%%%%%%%%%%%%%%%%%%%%
-5903@%%%%%%%%%%%%%%%%%%%%%%%%%%%%%%%%%%%%%%%%%%%%%%%%%%%%%%%%%%%%%%%%%%%%%%%%%%
-5979@%%%%%%%%%%%%%%%%%%%%%%%%%%%%%%%%%%%%%%%%%%%%%%%%%%%%%%%%%%%%%%%%%%%%%%%%%%
-6054@%%%%%%%%%%%%%%%%%%%%%%%%%%%%%%%%%%%%%%%%%%%%%%%%%%%%%%%%%%%%%%%%%%%%%%%%%%
-6129@%%%%%%%%%%%%%%%%%%%%%%%%%%%%%%%%%%%%%%%%%%%%%%%%%%%%%%%%%%%%%%%%%%%%%%%%%%
-6204@%%%%%%%%%%%%%%%%%%%%%%%%%%%%%%%%%%%%%%%%%%%%%%%%%%%%%%%%%%%%%%%%%%%%%%%%%%
-6280@%%%%%%%%%%%%%%%%%%%%%%%%%%%%%%%%%%%%%%%%%%%%%%%%%%%%%%%%%%%%%%%%%%%%%%%%%%
-6355@%%%%%%%%%%%%%%%%%%%%%%%%%%%%%%%%%%%%%%%%%%%%%%%%%%%%%%%%%%%%%%%%%%%%%%%%%%
-6430@%%%%%%%%%%%%%%%%%%%%%%%%%%%%%%%%%%%%%%%%%%%%%%%%%%%%%%%%%%%%%%%%%%%%%%%%%%
-6506@%%%%%%%%%%%%%%%%%%%%%%%%%%%%%%%%%%%%%%%%%%%%%%%%%%%%%%%%%%%%%%%%%%%%%%%%%%
-6581@%%%%%%%%%%%%%%%%%%%%%%%%%%%%%%%%%%%%%%%%%%%%%%%%%%%%%%%%%%%%%%%%%%%%%%%%%%
-6656@%%%%%%%%%%%%%%%%%%%%%%%%%%%%%%%%%%%%%%%%%%%%%%%%%%%%%%%%%%%%%%%%%%%%%%%%%%
-6731@%%%%%%%%%%%%%%%%%%%%%%%%%%%%%%%%%%%%%%%%%%%%%%%%%%%%%%%%%%%%%%%%%%%%%%%%%%
-6807@%%%%%%%%%%%%%%%%%%%%%%%%%%%%%%%%%%%%%%%%%%%%%%%%%%%%%%%%%%%%%%%%%%%%%%%%%%
-6882@%%%%%%%%%%%%%%%%%%%%%%%%%%%%%%%%%%%%%%%%%%%%%%%%%%%%%%%%%%%%%%%%%%%%%%%%%%
-6957@%%%%%%%%%%%%%%%%%%%%%%%%%%%%%%%%%%%%%%%%%%%%%%%%%%%%%%%%%%%%%%%%%%%%%%%%%%
-7033@%%%%%%%%%%%%%%%%%%%%%%%%%%%%%%%%%%%%%%%%%%%%%%%%%%%%%%%%%%%%%%%%%%%%%%%%%%
-7108@%%%%%%%%%%%%%%%%%%%%%%%%%%%%%%%%%%%%%%%%%%%%%%%%%%%%%%%%%%%%%%%%%%%%%%%%%%
-7183@%%%%%%%%%%%%%%%%%%%%%%%%%%%%%%%%%%%%%%%%%%%%%%%%%%%%%%%%%%%%%%%%%%%%%%%%%%
-7258@%%%%%%%%%%%%%%%%%%%%%%%%%%%%%%%%%%%%%%%%%%%%%%%%%%%%%%%%%%%%%%%%%%%%%%%%%%
-7334@%%%%%%%%%%%%%%%%%%%%%%%%%%%%%%%%%%%%%%%%%%%%%%%%%%%%%%%%%%%%%%%%%%%%%%%%%%
-7409@%%%%%%%%%%%%%%%%%%%%%%%%%%%%%%%%%%%%%%%%%%%%%%%%%%%%%%%%%%%%%%%%%%%%%%%%%%
-7484@%%%%%%%%%%%%%%%%%%%%%%%%%%%%%%%%%%%%%%%%%%%%%%%%%%%%%%%%%%%%%%%%%%%%%%%%%%
-7559@%%%%%%%%%%%%%%%%%%%%%%%%%%%%%%%%%%%%%%%%%%%%%%%%%%%%%%%%%%%%%%%%%%%%%%%%%%
-7635@%%%%%%%%%%%%%%%%%%%%%%%%%%%%%%%%%%%%%%%%%%%%%%%%%%%%%%%%%%%%%%%%%%%%%%%%%%
-7710@%%%%%%%%%%%%%%%%%%%%%%%%%%%%%%%%%%%%%%%%%%%%%%%%%%%%%%%%%%%%%%%%%%%%%%%%%%
-7785@%%%%%%%%%%%%%%%%%%%%%%%%%%%%%%%%%%%%%%%%%%%%%%%%%%%%%%%%%%%%%%%%%%%%%%%%%%
-7861@%%%%%%%%%%%%%%%%%%%%%%%%%%%%%%%%%%%%%%%%%%%%%%%%%%%%%%%%%%%%%%%%%%%%%%%%%%
-7936@%%%%%%%%%%%%%%%%%%%%%%%%%%%%%%%%%%%%%%%%%%%%%%%%%%%%%%%%%%%%%%%%%%%%%%%%%%
-8011@%%%%%%%%%%%%%%%%%%%%%%%%%%%%%%%%%%%%%%%%%%%%%%%%%%%%%%%%%%%%%%%%%%%%%%%%%%
-8086@%%%%%%%%%%%%%%%%%%%%%%%%%%%%%%%%%%%%%%%%%%%%%%%%%%%%%%%%%%%%%%%%%%%%%%%%%%
-8162@%%%%%%%%%%%%%%%%%%%%%%%%%%%%%%%%%%%%%%%%%%%%%%%%%%%%%%%%%%%%%%%%%%%%%%%%%%
-8237@%%%%%%%%%%%%%%%%%%%%%%%%%%%%%%%%%%%%%%%%%%%%%%%%%%%%%%%%%%%%%%%%%%%%%%%%%%
-8312@%%%%%%%%%%%%%%%%%%%%%%%%%%%%%%%%%%%%%%%%%%%%%%%%%%%%%%%%%%%%%%%%%%%%%%%%%%
-8388@%%%%%%%%%%%%%%%%%%%%%%%%%%%%%%%%%%%%%%%%%%%%%%%%%%%%%%%%%%%%%%%%%%%%%%%%%%
-8463@%%%%%%%%%%%%%%%%%%%%%%%%%%%%%%%%%%%%%%%%%%%%%%%%%%%%%%%%%%%%%%%%%%%%%%%%%%
-8538@%%%%%%%%%%%%%%%%%%%%%%%%%%%%%%%%%%%%%%%%%%%%%%%%%%%%%%%%%%%%%%%%%%%%%%%%%%
-8613@%%%%%%%%%%%%%%%%%%%%%%%%%%%%%%%%%%%%%%%%%%%%%%%%%%%%%%%%%%%%%%%%%%%%%%%%%%
-8689@%%%%%%%%%%%%%%%%%%%%%%%%%%%%%%%%%%%%%%%%%%%%%%%%%%%%%%%%%%%%%%%%%%%%%%%%%%
-8764@%%%%%%%%%%%%%%%%%%%%%%%%%%%%%%%%%%%%%%%%%%%%%%%%%%%%%%%%%%%%%%%%%%%%%%%%%%
-8839@%%%%%%%%%%%%%%%%%%%%%%%%%%%%%%%%%%%%%%%%%%%%%%%%%%%%%%%%%%%%%%%%%%%%%%%%%%
-8914@%%%%%%%%%%%%%%%%%%%%%%%%%%%%%%%%%%%%%%%%%%%%%%%%%%%%%%%%%%%%%%%%%%%%%%%%%%
-8990@%%%%%%%%%%%%%%%%%%%%%%%%%%%%%%%%%%%%%%%%%%%%%%%%%%%%%%%%%%%%%%%%%%%%%%%%%%
-9065@%%%%%%%%%%%%%%%%%%%%%%%%%%%%%%%%%%%%%%%%%%%%%%%%%%%%%%%%%%%%%%%%%%%%%%%%%%
-9140@%%%%%%%%%%%%%%%%%%%%%%%%%%%%%%%%%%%%%%%%%%%%%%%%%%%%%%%%%%%%%%%%%%%%%%%%%%
-9216@%%%%%%%%%%%%%%%%%%%%%%%%%%%%%%%%%%%%%%%%%%%%%%%%%%%%%%%%%%%%%%%%%%%%%%%%%%
-9291@%%%%%%%%%%%%%%%%%%%%%%%%%%%%%%%%%%%%%%%%%%%%%%%%%%%%%%%%%%%%%%%%%%%%%%%%%%
-9366@%%%%%%%%%%%%%%%%%%%%%%%%%%%%%%%%%%%%%%%%%%%%%%%%%%%%%%%%%%%%%%%%%%%%%%%%%%
-9441@%%%%%%%%%%%%%%%%%%%%%%%%%%%%%%%%%%%%%%%%%%%%%%%%%%%%%%%%%%%%%%%%%%%%%%%%%%
-9517@%%%%%%%
-9524@ $$ checkpoint
##END=
##TITLE=Predicted peak list
##JCAMP-DX=5.01
##ORIGIN=UNKNOWN
##OWNER=UNKNOWN
##DATA TYPE=NMR PEAK TABLE
##DATA CLASS=PEAK TABLE
##BLOCK_ID=3
##CROSS REFERENCE=NMR SPECTRUM:BLOCK_ID=2
##DATE=22/02/07
##TIME=18:05:14
##LONG DATE=2022/02/07 18:05:14 
##.OBSERVE FREQUENCY=100
##.OBSERVE NUCLEUS=1H
##NPOINTS=86
##XUNITS=PPM
##YUNITS=ARBITRARY UNITS
##PEAK TABLE=(XY..XY)
(2.660000, 0.9999335)
(2.660000, 0.9999335)
(2.660000, 0.9999335)
(2.855000, 0.249983375)
(2.920000, 0.49996675)
(2.985000, 0.249983375)
(2.855000, 0.249983375)
(2.920000, 0.49996675)
(2.985000, 0.249983375)
(2.278000, 0.1249916875)
(2.343000, 0.249983375)
(2.408000, 0.1249916875)
(2.412000, 0.1249916875)
(2.477000, 0.249983375)
(2.542000, 0.1249916875)
(3.298000, 0.1249916875)
(3.363000, 0.249983375)
(3.428000, 0.1249916875)
(3.432000, 0.1249916875)
(3.497000, 0.249983375)
(3.562000, 0.1249916875)
(2.183000, 0.249983375)
(2.250000, 0.49996675)
(2.317000, 0.249983375)
(2.183000, 0.249983375)
(2.250000, 0.49996675)
(2.317000, 0.249983375)
(3.133000, 0.249983375)
(3.200000, 0.49996675)
(3.267000, 0.249983375)
(3.133000, 0.249983375)
(3.200000, 0.49996675)
(3.267000, 0.249983375)
(3.980000, 0.9999335)
(0.970000, 0.9999335)
(0.970000, 0.9999335)
(0.970000, 0.9999335)
(0.970000, 0.9999335)
(0.970000, 0.9999335)
(0.970000, 0.9999335)
(4.098000, 0.249983375)
(4.168000, 0.249983375)
(4.212000, 0.249983375)
(4.282000, 0.249983375)
(3.758000, 0.249983375)
(3.828000, 0.249983375)
(3.872000, 0.249983375)
(3.942000, 0.249983375)
(3.731500, 0.1249916875)
(3.784500, 0.1249916875)
(3.801500, 0.1249916875)
(3.854500, 0.1249916875)
(3.845500, 0.1249916875)
(3.898500, 0.1249916875)
(3.915500, 0.1249916875)
(3.968500, 0.1249916875)
(4.131500, 0.1249916875)
(4.184500, 0.1249916875)
(4.201500, 0.1249916875)
(4.254500, 0.1249916875)
(4.245500, 0.1249916875)
(4.298500, 0.1249916875)
(4.315500, 0.1249916875)
(4.368500, 0.1249916875)
(4.270500, 0.1249916875)
(4.323500, 0.249983375)
(4.376500, 0.1249916875)
(4.363500, 0.1249916875)
(4.416500, 0.249983375)
(4.469500, 0.1249916875)
(3.847500, 0.49996675)
(3.852500, 0.49996675)
(8.490000, 0.9999335)
(8.490000, 0.9999335)
(4.338000, 0.249983375)
(4.343000, 0.249983375)
(4.397000, 0.249983375)
(4.402000, 0.249983375)
(3.739000, 0.1249916875)
(3.798000, 0.1249916875)
(3.809000, 0.1249916875)
(3.868000, 0.1249916875)
(3.832000, 0.1249916875)
(3.891000, 0.1249916875)
(3.902000, 0.1249916875)
(3.961000, 0.1249916875)
##END=
##TITLE=Predicted assignments
##JCAMP-DX=5.01
##ORIGIN=UNKNOWN
##OWNER=UNKNOWN
##DATA TYPE=NMR PEAK ASSIGNMENTS
##DATA CLASS=PEAK ASSIGNMENTS
##BLOCK_ID=4
##CROSS REFERENCE=STRUCTURE:BLOCK_ID=1
##DATE=22/02/07
##TIME=18:05:14
##LONG DATE=2022/02/07 18:05:14 
##.OBSERVE FREQUENCY=100
##.OBSERVE NUCLEUS=1H
##NPOINTS=86
##XUNITS=PPM
##PEAK ASSIGNMENTS=(XMA)
(2.660000, <s>, <52>)
(2.660000, <s>, <53>)
(2.660000, <s>, <54>)
(2.920000, <t>, <55>)
(2.920000, <t>, <55>)
(2.920000, <t>, <55>)
(2.920000, <t>, <56>)
(2.920000, <t>, <56>)
(2.920000, <t>, <56>)
(2.410000, <dt>, <57>)
(2.410000, <dt>, <57>)
(2.410000, <dt>, <57>)
(2.410000, <dt>, <57>)
(2.410000, <dt>, <57>)
(2.410000, <dt>, <57>)
(3.430000, <dt>, <58>)
(3.430000, <dt>, <58>)
(3.430000, <dt>, <58>)
(3.430000, <dt>, <58>)
(3.430000, <dt>, <58>)
(3.430000, <dt>, <58>)
(2.250000, <t>, <60>)
(2.250000, <t>, <60>)
(2.250000, <t>, <60>)
(2.250000, <t>, <61>)
(2.250000, <t>, <61>)
(2.250000, <t>, <61>)
(3.200000, <t>, <62>)
(3.200000, <t>, <62>)
(3.200000, <t>, <62>)
(3.200000, <t>, <63>)
(3.200000, <t>, <63>)
(3.200000, <t>, <63>)
(3.980000, <s>, <65>)
(0.970000, <s>, <67>)
(0.970000, <s>, <68>)
(0.970000, <s>, <69>)
(0.970000, <s>, <70>)
(0.970000, <s>, <71>)
(0.970000, <s>, <72>)
(4.190000, <dd>, <73>)
(4.190000, <dd>, <73>)
(4.190000, <dd>, <73>)
(4.190000, <dd>, <73>)
(3.850000, <dd>, <74>)
(3.850000, <dd>, <74>)
(3.850000, <dd>, <74>)
(3.850000, <dd>, <74>)
(3.850000, <ddd>, <77>)
(3.850000, <ddd>, <77>)
(3.850000, <ddd>, <77>)
(3.850000, <ddd>, <77>)
(3.850000, <ddd>, <77>)
(3.850000, <ddd>, <77>)
(3.850000, <ddd>, <77>)
(3.850000, <ddd>, <77>)
(4.250000, <ddd>, <78>)
(4.250000, <ddd>, <78>)
(4.250000, <ddd>, <78>)
(4.250000, <ddd>, <78>)
(4.250000, <ddd>, <78>)
(4.250000, <ddd>, <78>)
(4.250000, <ddd>, <78>)
(4.250000, <ddd>, <78>)
(4.370000, <dt>, <79>)
(4.370000, <dt>, <79>)
(4.370000, <dt>, <79>)
(4.370000, <dt>, <79>)
(4.370000, <dt>, <79>)
(4.370000, <dt>, <79>)
(3.850000, <d>, <80>)
(3.850000, <d>, <80>)
(8.490000, <s>, <81>)
(8.490000, <s>, <84>)
(4.370000, <dd>, <85>)
(4.370000, <dd>, <85>)
(4.370000, <dd>, <85>)
(4.370000, <dd>, <85>)
(3.850000, <ddd>, <87>)
(3.850000, <ddd>, <87>)
(3.850000, <ddd>, <87>)
(3.850000, <ddd>, <87>)
(3.850000, <ddd>, <87>)
(3.850000, <ddd>, <87>)
(3.850000, <ddd>, <87>)
(3.850000, <ddd>, <87>)
##END=
##END=
