##TITLE=HMDB0001022, Simulated spectrum from predictions
##JCAMP-DX=4.24
##ORIGIN=NP-MRD
##OWNER=NP-MRD
##DATA TYPE=LINK
##DATE=22/02/07
##TIME=17:15:59
##LONG DATE=2022/02/07 17:15:59 
##TITLE=Succinyl-CoA
##JCAMP-CS=3.7
##ORIGIN=UNKNOWN
##OWNER=UNKNOWN
##DATE=22/02/07
##TIME=17:15:59
##BLOCK_ID=1
##CROSS REFERENCE=NMR PEAK ASSIGNMENTS:BLOCK_ID=4
##LONG DATE=2022/02/07 17:15:59 
##MOLFORM=C25 H40 N7 O19 P3 S
##ATOMLIST=
1 C 0
2 C 0
3 C 0
4 C 0
5 O 0
6 P 0
7 O 0
8 O 0
9 O 0
10 P 0
11 O 0
12 O 0
13 O 0
14 C 0
15 C 0
16 O 0
17 C 0
18 N 0
19 C 0
20 N 0
21 C 0
22 C 0
23 N 0
24 N 0
25 C 0
26 N 0
27 C 0
28 C 0
29 O 0
30 C 0
31 O 0
32 P 0
33 O 0
34 O 0
35 O 0
36 C 0
37 O 0
38 C 0
39 O 0
40 N 0
41 C 0
42 C 0
43 C 0
44 O 0
45 N 0
46 C 0
47 C 0
48 S 0
49 C 0
50 O 0
51 C 0
52 C 0
53 C 0
54 O 0
55 O 0
56 H 0
57 H 0
58 H 0
59 H 0
60 H 0
61 H 0
62 H 0
63 H 0
64 H 0
65 H 0
66 H 0
67 H 0
68 H 0
69 H 0
70 H 0
71 H 0
72 H 0
73 H 0
74 H 0
75 H 0
76 H 0
77 H 0
78 H 0
79 H 0
80 H 0
81 H 0
82 H 0
83 H 0
84 H 0
85 H 0
86 H 0
87 H 0
88 H 0
89 H 0
90 H 0
91 H 0
92 H 0
93 H 0
94 H 0
95 H 0
##BONDLIST=
1 2 S
2 3 S
2 4 S
4 5 S
5 6 S
6 7 D
6 8 S
6 9 S
9 10 S
10 11 D
10 12 S
10 13 S
13 14 S
14 15 S
15 16 S
16 17 S
17 18 S
18 19 S
19 20 D
20 21 S
21 22 D
22 23 S
22 24 S
24 25 D
25 26 S
26 27 D
17 28 S
28 29 S
28 30 S
30 31 S
31 32 S
32 33 D
32 34 S
32 35 S
2 36 S
36 37 S
36 38 S
38 39 D
38 40 S
40 41 S
41 42 S
42 43 S
43 44 D
43 45 S
45 46 S
46 47 S
47 48 S
48 49 S
49 50 D
49 51 S
51 52 S
52 53 S
53 54 D
53 55 S
30 15 S
27 18 S
27 21 S
1 56 S
1 57 S
1 58 S
3 59 S
3 60 S
3 61 S
4 62 S
4 63 S
8 64 S
12 65 S
14 66 S
14 67 S
15 68 S
17 69 S
19 70 S
23 71 S
23 72 S
25 73 S
28 74 S
29 75 S
30 76 S
34 77 S
35 78 S
36 79 S
37 80 S
40 81 S
41 82 S
41 83 S
42 84 S
42 85 S
45 86 S
46 87 S
46 88 S
47 89 S
47 90 S
51 91 S
51 92 S
52 93 S
52 94 S
55 95 S
##STEREOCENTER=
6 P 0
10 P 0
15 P 0
17 P 0
28 M 0
30 M 0
36 P 0
##$MOLFILE=HMDB0001022
     RDKit          3D
Succinyl-CoA
 95 97  0  0  0  0  0  0  0  0999 V2000
    0.8384   -0.0821    0.9259 C   0  0  0  0  0  0  0  0  0  0  0  0
    1.5558   -0.4097   -0.3781 C   0  0  0  0  0  0  0  0  0  0  0  0
    1.9228    0.8869   -1.0543 C   0  0  0  0  0  0  0  0  0  0  0  0
    0.5532   -1.1672   -1.2828 C   0  0  0  0  0  0  0  0  0  0  0  0
   -0.5474   -0.3104   -1.5053 O   0  0  0  0  0  0  0  0  0  0  0  0
   -1.7283   -0.9938   -2.4691 P   0  0  0  0  0  5  0  0  0  0  0  0
   -2.1103   -0.0643   -3.6244 O   0  0  0  0  0  0  0  0  0  0  0  0
   -1.1681   -2.4319   -3.1612 O   0  0  0  0  0  0  0  0  0  0  0  0
   -3.1407   -1.3159   -1.5629 O   0  0  0  0  0  0  0  0  0  0  0  0
   -3.9244    0.1272   -1.1546 P   0  0  0  0  0  5  0  0  0  0  0  0
   -3.1079    0.7733   -0.0262 O   0  0  0  0  0  0  0  0  0  0  0  0
   -3.9549    1.2244   -2.4398 O   0  0  0  0  0  0  0  0  0  0  0  0
   -5.4709   -0.1498   -0.5585 O   0  0  0  0  0  0  0  0  0  0  0  0
   -5.3786   -0.4854    0.8021 C   0  0  0  0  0  0  0  0  0  0  0  0
   -6.7676   -0.7452    1.3878 C   0  0  1  0  0  0  0  0  0  0  0  0
   -7.5870    0.3493    1.2899 O   0  0  0  0  0  0  0  0  0  0  0  0
   -8.8072   -0.0282    0.7873 C   0  0  1  0  0  0  0  0  0  0  0  0
   -9.5474    1.0129    0.1715 N   0  0  0  0  0  0  0  0  0  0  0  0
   -9.1529    2.2013   -0.2661 C   0  0  0  0  0  0  0  0  0  0  0  0
  -10.1665    2.8981   -0.7924 N   0  0  0  0  0  0  0  0  0  0  0  0
  -11.2836    2.1289   -0.6958 C   0  0  0  0  0  0  0  0  0  0  0  0
  -12.6007    2.2908   -1.0472 C   0  0  0  0  0  0  0  0  0  0  0  0
  -13.0155    3.5144   -1.6819 N   0  0  0  0  0  0  0  0  0  0  0  0
  -13.4659    1.3120   -0.8000 N   0  0  0  0  0  0  0  0  0  0  0  0
  -13.0698    0.1483   -0.2037 C   0  0  0  0  0  0  0  0  0  0  0  0
  -11.7792   -0.0012    0.1359 N   0  0  0  0  0  0  0  0  0  0  0  0
  -10.8732    0.9634   -0.0956 C   0  0  0  0  0  0  0  0  0  0  0  0
   -8.4386   -1.1342   -0.1906 C   0  0  2  0  0  0  0  0  0  0  0  0
   -9.5294   -1.9379   -0.5179 O   0  0  0  0  0  0  0  0  0  0  0  0
   -7.4236   -1.8865    0.6454 C   0  0  2  0  0  0  0  0  0  0  0  0
   -8.0986   -2.6655    1.5746 O   0  0  0  0  0  0  0  0  0  0  0  0
   -7.7020   -4.3006    1.4921 P   0  0  0  0  0  5  0  0  0  0  0  0
   -8.3602   -4.9919    0.2952 O   0  0  0  0  0  0  0  0  0  0  0  0
   -6.0523   -4.5598    1.5092 O   0  0  0  0  0  0  0  0  0  0  0  0
   -8.3683   -5.0271    2.8833 O   0  0  0  0  0  0  0  0  0  0  0  0
    2.8005   -1.2332   -0.1948 C   0  0  1  0  0  0  0  0  0  0  0  0
    3.3384   -1.4094   -1.4761 O   0  0  0  0  0  0  0  0  0  0  0  0
    3.7739   -0.4610    0.6985 C   0  0  0  0  0  0  0  0  0  0  0  0
    3.4679   -0.5478    1.9057 O   0  0  0  0  0  0  0  0  0  0  0  0
    4.8158    0.2071    0.1257 N   0  0  0  0  0  0  0  0  0  0  0  0
    5.8748    0.8895   -0.4173 C   0  0  0  0  0  0  0  0  0  0  0  0
    7.2546    0.5723   -0.0490 C   0  0  0  0  0  0  0  0  0  0  0  0
    7.6371    0.7294    1.3402 C   0  0  0  0  0  0  0  0  0  0  0  0
    6.8929    0.6743    2.3235 O   0  0  0  0  0  0  0  0  0  0  0  0
    9.0374    0.9821    1.6389 N   0  0  0  0  0  0  0  0  0  0  0  0
    9.3999    1.1049    2.9989 C   0  0  0  0  0  0  0  0  0  0  0  0
   10.7700    1.4669    3.3864 C   0  0  0  0  0  0  0  0  0  0  0  0
   12.0462    0.4119    2.7689 S   0  0  0  0  0  0  0  0  0  0  0  0
   12.4980    0.7418    1.1082 C   0  0  0  0  0  0  0  0  0  0  0  0
   12.0429    1.7800    0.5544 O   0  0  0  0  0  0  0  0  0  0  0  0
   13.3864   -0.1233    0.3117 C   0  0  0  0  0  0  0  0  0  0  0  0
   13.5866    0.4530   -1.0606 C   0  0  0  0  0  0  0  0  0  0  0  0
   14.2072    1.7855   -1.0038 C   0  0  0  0  0  0  0  0  0  0  0  0
   14.5475    2.3115    0.0718 O   0  0  0  0  0  0  0  0  0  0  0  0
   14.4322    2.5008   -2.1887 O   0  0  0  0  0  0  0  0  0  0  0  0
    1.4557    0.3884    1.6798 H   0  0  0  0  0  0  0  0  0  0  0  0
    0.0397    0.6695    0.6137 H   0  0  0  0  0  0  0  0  0  0  0  0
    0.2886   -0.9945    1.2317 H   0  0  0  0  0  0  0  0  0  0  0  0
    3.0103    0.9024   -1.2269 H   0  0  0  0  0  0  0  0  0  0  0  0
    1.4231    0.9612   -2.0459 H   0  0  0  0  0  0  0  0  0  0  0  0
    1.6299    1.7869   -0.4387 H   0  0  0  0  0  0  0  0  0  0  0  0
    0.1977   -2.0150   -0.6711 H   0  0  0  0  0  0  0  0  0  0  0  0
    1.0012   -1.5477   -2.1896 H   0  0  0  0  0  0  0  0  0  0  0  0
   -0.4931   -2.2270   -3.8591 H   0  0  0  0  0  0  0  0  0  0  0  0
   -4.9083    1.5229   -2.5684 H   0  0  0  0  0  0  0  0  0  0  0  0
   -4.8540    0.2541    1.4086 H   0  0  0  0  0  0  0  0  0  0  0  0
   -4.8117   -1.4516    0.8200 H   0  0  0  0  0  0  0  0  0  0  0  0
   -6.6204   -1.0378    2.4435 H   0  0  0  0  0  0  0  0  0  0  0  0
   -9.3994   -0.5359    1.6069 H   0  0  0  0  0  0  0  0  0  0  0  0
   -8.1454    2.5956   -0.2237 H   0  0  0  0  0  0  0  0  0  0  0  0
  -13.5599    3.4566   -2.5511 H   0  0  0  0  0  0  0  0  0  0  0  0
  -12.7552    4.4059   -1.2448 H   0  0  0  0  0  0  0  0  0  0  0  0
  -13.8099   -0.6182   -0.0256 H   0  0  0  0  0  0  0  0  0  0  0  0
   -7.9543   -0.7117   -1.0895 H   0  0  0  0  0  0  0  0  0  0  0  0
   -9.8450   -1.7177   -1.4528 H   0  0  0  0  0  0  0  0  0  0  0  0
   -6.7164   -2.4635    0.0141 H   0  0  0  0  0  0  0  0  0  0  0  0
   -5.7028   -4.4630    0.5990 H   0  0  0  0  0  0  0  0  0  0  0  0
   -8.6858   -5.9501    2.6788 H   0  0  0  0  0  0  0  0  0  0  0  0
    2.5930   -2.1777    0.2799 H   0  0  0  0  0  0  0  0  0  0  0  0
    2.8964   -0.8915   -2.1686 H   0  0  0  0  0  0  0  0  0  0  0  0
    5.1329    0.7105    1.3672 H   0  0  0  0  0  0  0  0  0  0  0  0
    5.7897    0.8444   -1.5891 H   0  0  0  0  0  0  0  0  0  0  0  0
    5.7498    2.0197   -0.2963 H   0  0  0  0  0  0  0  0  0  0  0  0
    7.9826    1.1524   -0.7267 H   0  0  0  0  0  0  0  0  0  0  0  0
    7.5332   -0.4987   -0.3279 H   0  0  0  0  0  0  0  0  0  0  0  0
    9.6743    1.0496    0.8568 H   0  0  0  0  0  0  0  0  0  0  0  0
    9.0420    0.1533    3.5269 H   0  0  0  0  0  0  0  0  0  0  0  0
    8.6880    1.8798    3.4787 H   0  0  0  0  0  0  0  0  0  0  0  0
   10.9288    2.5442    3.0630 H   0  0  0  0  0  0  0  0  0  0  0  0
   10.8868    1.5402    4.5205 H   0  0  0  0  0  0  0  0  0  0  0  0
   14.3849   -0.2445    0.8078 H   0  0  0  0  0  0  0  0  0  0  0  0
   12.9023   -1.1307    0.1857 H   0  0  0  0  0  0  0  0  0  0  0  0
   14.1660   -0.2004   -1.7267 H   0  0  0  0  0  0  0  0  0  0  0  0
   12.5727    0.5525   -1.5346 H   0  0  0  0  0  0  0  0  0  0  0  0
   14.2325    3.5081   -2.1796 H   0  0  0  0  0  0  0  0  0  0  0  0
  1  2  1  0
  2  3  1  0
  2  4  1  0
  4  5  1  0
  5  6  1  0
  6  7  2  0
  6  8  1  0
  6  9  1  0
  9 10  1  0
 10 11  2  0
 10 12  1  0
 10 13  1  0
 13 14  1  0
 14 15  1  0
 15 16  1  0
 16 17  1  0
 17 18  1  0
 18 19  1  0
 19 20  2  0
 20 21  1  0
 21 22  2  0
 22 23  1  0
 22 24  1  0
 24 25  2  0
 25 26  1  0
 26 27  2  0
 17 28  1  0
 28 29  1  0
 28 30  1  0
 30 31  1  0
 31 32  1  0
 32 33  2  0
 32 34  1  0
 32 35  1  0
  2 36  1  0
 36 37  1  0
 36 38  1  0
 38 39  2  0
 38 40  1  0
 40 41  1  0
 41 42  1  0
 42 43  1  0
 43 44  2  0
 43 45  1  0
 45 46  1  0
 46 47  1  0
 47 48  1  0
 48 49  1  0
 49 50  2  0
 49 51  1  0
 51 52  1  0
 52 53  1  0
 53 54  2  0
 53 55  1  0
 30 15  1  0
 27 18  1  0
 27 21  1  0
  1 56  1  0
  1 57  1  0
  1 58  1  0
  3 59  1  0
  3 60  1  0
  3 61  1  0
  4 62  1  0
  4 63  1  0
  8 64  1  0
 12 65  1  0
 14 66  1  0
 14 67  1  0
 15 68  1  1
 17 69  1  1
 19 70  1  0
 23 71  1  0
 23 72  1  0
 25 73  1  0
 28 74  1  6
 29 75  1  0
 30 76  1  6
 34 77  1  0
 35 78  1  0
 36 79  1  1
 37 80  1  0
 40 81  1  0
 41 82  1  0
 41 83  1  0
 42 84  1  0
 42 85  1  0
 45 86  1  0
 46 87  1  0
 46 88  1  0
 47 89  1  0
 47 90  1  0
 51 91  1  0
 51 92  1  0
 52 93  1  0
 52 94  1  0
 55 95  1  0
M  END

##END=
##TITLE=Predicted spectrum
##JCAMP-DX=5.01
##ORIGIN=UNKNOWN
##OWNER=UNKNOWN
##DATA TYPE=NMR SPECTRUM
##BLOCK_ID=2
##CROSS REFERENCE=NMR PEAK TABLE:BLOCK_ID=3
##DATE=22/02/07
##TIME=17:15:59
##LONG DATE=2022/02/07 17:15:59 
##.OBSERVE FREQUENCY=100
##.OBSERVE NUCLEUS=1H
##.SHIFT REFERENCE=INTERNAL,nan,56172.86,0
##XUNITS=PPM
##FIRSTX=12.0
##LASTX=-2.0
##MINX=-2.0
##MAXX=12.0
##XFACTOR=0.0002099999999991553
##NPOINTS=65536
##YUNITS=ARBITRARY UNITS
##FIRSTY=1.242262e-05
##LASTY=3.865266e-05
##MINY=1.242262e-05
##MAXY=3.045766
##YFACTOR=9.295223853267006e-05
##XYDATA=(X++(Y..Y)), XYDATA $$ DIF
57143@%%%%%%%%%%%%%%%%%%%%%%%%%%%%%%%%%%%%%%%%%%%%%%%%%%%%%%%%%%%%%%%%%%%%%%%%%%
57068@%%%%%%%%%%%%%%%%%%%%%%%%%%%%%%%%%%%%%%%%%%%%%%%%%%%%%%%%%%%%%%%%%%%%%%%%%%
56992@%%%%%%%%%%%%%%%%%%%%%%%%%%%%%%%%%%%%%%%%%%%%%%%%%%%%%%%%%%%%%%%%%%%%%%%%%%
56917@%%%%%%%%%%%%%%%%%%%%%%%%%%%%%%%%%%%%%%%%%%%%%%%%%%%%%%%%%%%%%%%%%%%%%%%%%%
56842@%%%%%%%%%%%%%%%%%%%%%%%%%%%%%%%%%%%%%%%%%%%%%%%%%%%%%%%%%%%%%%%%%%%%%%%%%%
56766@%%%%%%%%%%%%%%%%%%%%%%%%%%%%%%%%%%%%%%%%%%%%%%%%%%%%%%%%%%%%%%%%%%%%%%%%%%
56691@%%%%%%%%%%%%%%%%%%%%%%%%%%%%%%%%%%%%%%%%%%%%%%%%%%%%%%%%%%%%%%%%%%%%%%%%%%
56616@%%%%%%%%%%%%%%%%%%%%%%%%%%%%%%%%%%%%%%%%%%%%%%%%%%%%%%%%%%%%%%%%%%%%%%%%%%
56541@%%%%%%%%%%%%%%%%%%%%%%%%%%%%%%%%%%%%%%%%%%%%%%%%%%%%%%%%%%%%%%%%%%%%%%%%%%
56465@%%%%%%%%%%%%%%%%%%%%%%%%%%%%%%%%%%%%%%%%%%%%%%%%%%%%%%%%%%%%%%%%%%%%%%%%%%
56390@%%%%%%%%%%%%%%%%%%%%%%%%%%%%%%%%%%%%%%%%%%%%%%%%%%%%%%%%%%%%%%%%%%%%%%%%%%
56315@%%%%%%%%%%%%%%%%%%%%%%%%%%%%%%%%%%%%%%%%%%%%%%%%%%%%%%%%%%%%%%%%%%%%%%%%%%
56240@%%%%%%%%%%%%%%%%%%%%%%%%%%%%%%%%%%%%%%%%%%%%%%%%%%%%%%%%%%%%%%%%%%%%%%%%%%
56164@%%%%%%%%%%%%%%%%%%%%%%%%%%%%%%%%%%%%%%%%%%%%%%%%%%%%%%%%%%%%%%%%%%%%%%%%%%
56089@%%%%%%%%%%%%%%%%%%%%%%%%%%%%%%%%%%%%%%%%%%%%%%%%%%%%%%%%%%%%%%%%%%%%%%%%%%
56014@%%%%%%%%%%%%%%%%%%%%%%%%%%%%%%%%%%%%%%%%%%%%%%%%%%%%%%%%%%%%%%%%%%%%%%%%%%
55938@%%%%%%%%%%%%%%%%%%%%%%%%%%%%%%%%%%%%%%%%%%%%%%%%%%%%%%%%%%%%%%%%%%%%%%%%%%
55863@%%%%%%%%%%%%%%%%%%%%%%%%%%%%%%%%%%%%%%%%%%%%%%%%%%%%%%%%%%%%%%%%%%%%%%%%%%
55788@%%%%%%%%%%%%%%%%%%%%%%%%%%%%%%%%%%%%%%%%%%%%%%%%%%%%%%%%%%%%%%%%%%%%%%%%%%
55713@%%%%%%%%%%%%%%%%%%%%%%%%%%%%%%%%%%%%%%%%%%%%%%%%%%%%%%%%%%%%%%%%%%%%%%%%%%
55637@%%%%%%%%%%%%%%%%%%%%%%%%%%%%%%%%%%%%%%%%%%%%%%%%%%%%%%%%%%%%%%%%%%%%%%%%%%
55562@%%%%%%%%%%%%%%%%%%%%%%%%%%%%%%%%%%%%%%%%%%%%%%%%%%%%%%%%%%%%%%%%%%%%%%%%%%
55487@%%%%%%%%%%%%%%%%%%%%%%%%%%%%%%%%%%%%%%%%%%%%%%%%%%%%%%%%%%%%%%%%%%%%%%%%%%
55411@%%%%%%%%%%%%%%%%%%%%%%%%%%%%%%%%%%%%%%%%%%%%%%%%%%%%%%%%%%%%%%%%%%%%%%%%%%
55336@%%%%%%%%%%%%%%%%%%%%%%%%%%%%%%%%%%%%%%%%%%%%%%%%%%%%%%%%%%%%%%%%%%%%%%%%%%
55261@%%%%%%%%%%%%%%%%%%%%%%%%%%%%%%%%%%%%%%%%%%%%%%%%%%%%%%%%%%%%%%%%%%%%%%%%%%
55186@%%%%%%%%%%%%%%%%%%%%%%%%%%%%%%%%%%%%%%%%%%%%%%%%%%%%%%%%%%%%%%%%%%%%%%%%%%
55110@%%%%%%%%%%%%%%%%%%%%%%%%%%%%%%%%%%%%%%%%%%%%%%%%%%%%%%%%%%%%%%%%%%%%%%%%%%
55035@%%%%%%%%%%%%%%%%%%%%%%%%%%%%%%%%%%%%%%%%%%%%%%%%%%%%%%%%%%%%%%%%%%%%%%%%%%
54960@%%%%%%%%%%%%%%%%%%%%%%%%%%%%%%%%%%%%%%%%%%%%%%%%%%%%%%%%%%%%%%%%%%%%%%%%%%
54885@%%%%%%%%%%%%%%%%%%%%%%%%%%%%%%%%%%%%%%%%%%%%%%%%%%%%%%%%%%%%%%%%%%%%%%%%%%
54809@%%%%%%%%%%%%%%%%%%%%%%%%%%%%%%%%%%%%%%%%%%%%%%%%%%%%%%%%%%%%%%%%%%%%%%%%%%
54734@%%%%%%%%%%%%%%%%%%%%%%%%%%%%%%%%%%%%%%%%%%%%%%%%%%%%%%%%%%%%%%%%%%%%%%%%%%
54659@%%%%%%%%%%%%%%%%%%%%%%%%%%%%%%%%%%%%%%%%%%%%%%%%%%%%%%%%%%%%%%%%%%%%%%%%%%
54583@%%%%%%%%%%%%%%%%%%%%%%%%%%%%%%%%%%%%%%%%%%%%%%%%%%%%%%%%%%%%%%%%%%%%%%%%%%
54508@%%%%%%%%%%%%%%%%%%%%%%%%%%%%%%%%%%%%%%%%%%%%%%%%%%%%%%%%%%%%%%%%%%%%%%%%%%
54433@%%%%%%%%%%%%%%%%%%%%%%%%%%%%%%%%%%%%%%%%%%%%%%%%%%%%%%%%%%%%%%%%%%%%%%%%%%
54358@%%%%%%%%%%%%%%%%%%%%%%%%%%%%%%%%%%%%%%%%%%%%%%%%%%%%%%%%%%%%%%%%%%%%%%%%%%
54282@%%%%%%%%%%%%%%%%%%%%%%%%%%%%%%%%%%%%%%%%%%%%%%%%%%%%%%%%%%%%%%%%%%%%%%%%%%
54207@%%%%%%%%%%%%%%%%%%%%%%%%%%%%%%%%%%%%%%%%%%%%%%%%%%%%%%%%%%%%%%%%%%%%%%%%%%
54132@%%%%%%%%%%%%%%%%%%%%%%%%%%%%%%%%%%%%%%%%%%%%%%%%%%%%%%%%%%%%%%%%%%%%%%%%%%
54056@%%%%%%%%%%%%%%%%%%%%%%%%%%%%%%%%%%%%%%%%%%%%%%%%%%%%%%%%%%%%%%%%%%%%%%%%%%
53981@%%%%%%%%%%%%%%%%%%%%%%%%%%%%%%%%%%%%%%%%%%%%%%%%%%%%%%%%%%%%%%%%%%%%%%%%%%
53906@%%%%%%%%%%%%%%%%%%%%%%%%%%%%%%%%%%%%%%%%%%%%%%%%%%%%%%%%%%%%%%%%%%%%%%%%%%
53831@%%%%%%%%%%%%%%%%%%%%%%%%%%%%%%%%%%%%%%%%%%%%%%%%%%%%%%%%%%%%%%%%%%%%%%%%%%
53755@%%%%%%%%%%%%%%%%%%%%%%%%%%%%%%%%%%%%%%%%%%%%%%%%%%%%%%%%%%%%%%%%%%%%%%%%%%
53680@%%%%%%%%%%%%%%%%%%%%%%%%%%%%%%%%%%%%%%%%%%%%%%%%%%%%%%%%%%%%%%%%%%%%%%%%%%
53605@%%%%%%%%%%%%%%%%%%%%%%%%%%%%%%%%%%%%%%%%%%%%%%%%%%%%%%%%%%%%%%%%%%%%%%%%%%
53530@%%%%%%%%%%%%%%%%%%%%%%%%%%%%%%%%%%%%%%%%%%%%%%%%%%%%%%%%%%%%%%%%%%%%%%%%%%
53454@%%%%%%%%%%%%%%%%%%%%%%%%%%%%%%%%%%%%%%%%%%%%%%%%%%%%%%%%%%%%%%%%%%%%%%%%%%
53379@%%%%%%%%%%%%%%%%%%%%%%%%%%%%%%%%%%%%%%%%%%%%%%%%%%%%%%%%%%%%%%%%%%%%%%%%%%
53304@%%%%%%%%%%%%%%%%%%%%%%%%%%%%%%%%%%%%%%%%%%%%%%%%%%%%%%%%%%%%%%%%%%%%%%%%%%
53228@%%%%%%%%%%%%%%%%%%%%%%%%%%%%%%%%%%%%%%%%%%%%%%%%%%%%%%%%%%%%%%%%%%%%%%%%%%
53153@%%%%%%%%%%%%%%%%%%%%%%%%%%%%%%%%%%%%%%%%%%%%%%%%%%%%%%%%%%%%%%%%%%%%%%%%%%
53078@%%%%%%%%%%%%%%%%%%%%%%%%%%%%%%%%%%%%%%%%%%%%%%%%%%%%%%%%%%%%%%%%%%%%%%%%%%
53003@%%%%%%%%%%%%%%%%%%%%%%%%%%%%%%%%%%%%%%%%%%%%%%%%%%%%%%%%%%%%%%%%%%%%%%%%%%
52927@%%%%%%%%%%%%%%%%%%%%%%%%%%%%%%%%%%%%%%%%%%%%%%%%%%%%%%%%%%%%%%%%%%%%%%%%%%
52852@%%%%%%%%%%%%%%%%%%%%%%%%%%%%%%%%%%%%%%%%%%%%%%%%%%%%%%%%%%%%%%%%%%%%%%%%%%
52777@%%%%%%%%%%%%%%%%%%%%%%%%%%%%%%%%%%%%%%%%%%%%%%%%%%%%%%%%%%%%%%%%%%%%%%%%%%
52701@%%%%%%%%%%%%%%%%%%%%%%%%%%%%%%%%%%%%%%%%%%%%%%%%%%%%%%%%%%%%%%%%%%%%%%%%%%
52626@%%%%%%%%%%%%%%%%%%%%%%%%%%%%%%%%%%%%%%%%%%%%%%%%%%%%%%%%%%%%%%%%%%%%%%%%%%
52551@%%%%%%%%%%%%%%%%%%%%%%%%%%%%%%%%%%%%%%%%%%%%%%%%%%%%%%%%%%%%%%%%%%%%%%%%%%
52476@%%%%%%%%%%%%%%%%%%%%%%%%%%%%%%%%%%%%%%%%%%%%%%%%%%%%%%%%%%%%%%%%%%%%%%%%%%
52400@%%%%%%%%%%%%%%%%%%%%%%%%%%%%%%%%%%%%%%%%%%%%%%%%%%%%%%%%%%%%%%%%%%%%%%%%%%
52325@%%%%%%%%%%%%%%%%%%%%%%%%%%%%%%%%%%%%%%%%%%%%%%%%%%%%%%%%%%%%%%%%%%%%%%%%%%
52250@%%%%%%%%%%%%%%%%%%%%%%%%%%%%%%%%%%%%%%%%%%%%%%%%%%%%%%%%%%%%%%%%%%%%%%%%%%
52175@%%%%%%%%%%%%%%%%%%%%%%%%%%%%%%%%%%%%%%%%%%%%%%%%%%%%%%%%%%%%%%%%%%%%%%%%%%
52099@%%%%%%%%%%%%%%%%%%%%%%%%%%%%%%%%%%%%%%%%%%%%%%%%%%%%%%%%%%%%%%%%%%%%%%%%%%
52024@%%%%%%%%%%%%%%%%%%%%%%%%%%%%%%%%%%%%%%%%%%%%%%%%%%%%%%%%%%%%%%%%%%%%%%%%%%
51949@%%%%%%%%%%%%%%%%%%%%%%%%%%%%%%%%%%%%%%%%%%%%%%%%%%%%%%%%%%%%%%%%%%%%%%%%%%
51873@%%%%%%%%%%%%%%%%%%%%%%%%%%%%%%%%%%%%%%%%%%%%%%%%%%%%%%%%%%%%%%%%%%%%%%%%%%
51798@%%%%%%%%%%%%%%%%%%%%%%%%%%%%%%%%%%%%%%%%%%%%%%%%%%%%%%%%%%%%%%%%%%%%%%%%%%
51723@%%%%%%%%%%%%%%%%%%%%%%%%%%%%%%%%%%%%%%%%%%%%%%%%%%%%%%%%%%%%%%%%%%%%%%%%%%
51648@%%%%%%%%%%%%%%%%%%%%%%%%%%%%%%%%%%%%%%%%%%%%%%%%%%%%%%%%%%%%%%%%%%%%%%%%%%
51572@%%%%%%%%%%%%%%%%%%%%%%%%%%%%%%%%%%%%%%%%%%%%%%%%%%%%%%%%%%%%%%%%%%%%%%%%%%
51497@%%%%%%%%%%%%%%%%%%%%%%%%%%%%%%%%%%%%%%%%%%%%%%%%%%%%%%%%%%%%%%%%%%%%%%%%%%
51422@%%%%%%%%%%%%%%%%%%%%%%%%%%%%%%%%%%%%%%%%%%%%%%%%%%%%%%%%%%%%%%%%%%%%%%%%%%
51346@%%%%%%%%%%%%%%%%%%%%%%%%%%%%%%%%%%%%%%%%%%%%%%%%%%%%%%%%%%%%%%%%%%%%%%%%%%
51271@%%%%%%%%%%%%%%%%%%%%%%%%%%%%%%%%%%%%%%%%%%%%%%%%%%%%%%%%%%%%%%%%%%%%%%%%%%
51196@%%%%%%%%%%%%%%%%%%%%%%%%%%%%%%%%%%%%%%%%%%%%%%%%%%%%%%%%%%%%%%%%%%%%%%%%%%
51121@%%%%%%%%%%%%%%%%%%%%%%%%%%%%%%%%%%%%%%%%%%%%%%%%%%%%%%%%%%%%%%%%%%%%%%%%%%
51045@%%%%%%%%%%%%%%%%%%%%%%%%%%%%%%%%%%%%%%%%%%%%%%%%%%%%%%%%%%%%%%%%%%%%%%%%%%
50970@%%%%%%%%%%%%%%%%%%%%%%%%%%%%%%%%%%%%%%%%%%%%%%%%%%%%%%%%%%%%%%%%%%%%%%%%%%
50895@%%%%%%%%%%%%%%%%%%%%%%%%%%%%%%%%%%%%%%%%%%%%%%%%%%%%%%%%%%%%%%%%%%%%%%%%%%
50820@%%%%%%%%%%%%%%%%%%%%%%%%%%%%%%%%%%%%%%%%%%%%%%%%%%%%%%%%%%%%%%%%%%%%%%%%%%
50744@%%%%%%%%%%%%%%%%%%%%%%%%%%%%%%%%%%%%%%%%%%%%%%%%%%%%%%%%%%%%%%%%%%%%%%%%%%
50669@%%%%%%%%%%%%%%%%%%%%%%%%%%%%%%%%%%%%%%%%%%%%%%%%%%%%%%%%%%%%%%%%%%%%%%%%%%
50594@%%%%%%%%%%%%%%%%%%%%%%%%%%%%%%%%%%%%%%%%%%%%%%%%%%%%%%%%%%%%%%%%%%%%%%%%%%
50518@%%%%%%%%%%%%%%%%%%%%%%%%%%%%%%%%%%%%%%%%%%%%%%%%%%%%%%%%%%%%%%%%%%%%%%%%%%
50443@%%%%%%%%%%%%%%%%%%%%%%%%%%%%%%%%%%%%%%%%%%%%%%%%%%%%%%%%%%%%%%%%%%%%%%%%%%
50368@%%%%%%%%%%%%%%%%%%%%%%%%%%%%%%%%%%%%%%%%%%%%%%%%%%%%%%%%%%%%%%%%%%%%%%%%%%
50293@%%%%%%%%%%%%%%%%%%%%%%%%%%%%%%%%%%%%%%%%%%%%%%%%%%%%%%%%%%%%%%%%%%%%%%%%%%
50217@%%%%%%%%%%%%%%%%%%%%%%%%%%%%%%%%%%%%%%%%%%%%%%%%%%%%%%%%%%%%%%%%%%%%%%%%%%
50142@%%%%%%%%%%%%%%%%%%%%%%%%%%%%%%%%%%%%%%%%%%%%%%%%%%%%%%%%%%%%%%%%%%%%%%%%%%
50067@%%%%%%%%%%%%%%%%%%%%%%%%%%%%%%%%%%%%%%%%%%%%%%%%%%%%%%%%%%%%%%%%%%%%%%%%%%
49991@%%%%%%%%%%%%%%%%%%%%%%%%%%%%%%%%%%%%%%%%%%%%%%%%%%%%%%%%%%%%%%%%%%%%%%%%%%
49916@%%%%%%%%%%%%%%%%%%%%%%%%%%%%%%%%%%%%%%%%%%%%%%%%%%%%%%%%%%%%%%%%%%%%%%%%%%
49841@%%%%%%%%%%%%%%%%%%%%%%%%%%%%%%%%%%%%%%%%%%%%%%%%%%%%%%%%%%%%%%%%%%%%%%%%%%
49766@%%%%%%%%%%%%%%%%%%%%%%%%%%%%%%%%%%%%%%%%%%%%%%%%%%%%%%%%%%%%%%%%%%%%%%%%%%
49690@%%%%%%%%%%%%%%%%%%%%%%%%%%%%%%%%%%%%%%%%%%%%%%%%%%%%%%%%%%%%%%%%%%%%%%%%%%
49615@%%%%%%%%%%%%%%%%%%%%%%%%%%%%%%%%%%%%%%%%%%%%%%%%%%%%%%%%%%%%%%%%%%%%%%%%%%
49540@%%%%%%%%%%%%%%%%%%%%%%%%%%%%%%%%%%%%%%%%%%%%%%%%%%%%%%%%%%%%%%%%%%%%%%%%%%
49465@%%%%%%%%%%%%%%%%%%%%%%%%%%%%%%%%%%%%%%%%%%%%%%%%%%%%%%%%%%%%%%%%%%%%%%%%%%
49389@%%%%%%%%%%%%%%%%%%%%%%%%%%%%%%%%%%%%%%%%%%%%%%%%%%%%%%%%%%%%%%%%%%%%%%%%%%
49314@%%%%%%%%%%%%%%%%%%%%%%%%%%%%%%%%%%%%%%%%%%%%%%%%%%%%%%%%%%%%%%%%%%%%%%%%%%
49239@%%%%%%%%%%%%%%%%%%%%%%%%%%%%%%%%%%%%%%%%%%%%%%%%%%%%%%%%%%%%%%%%%%%%%%%%%%
49163@%%%%%%%%%%%%%%%%%%%%%%%%%%%%%%%%%%%%%%%%%%%%%%%%%%%%%%%%%%%%%%%%%%%%%%%%%%
49088@%%%%%%%%%%%%%%%%%%%%%%%%%%%%%%%%%%%%%%%%%%%%%%%%%%%%%%%%%%%%%%%%%%%%%%%%%%
49013@%%%%%%%%%%%%%%%%%%%%%%%%%%%%%%%%%%%%%%%%%%%%%%%%%%%%%%%%%%%%%%%%%%%%%%%%%%
48938@%%%%%%%%%%%%%%%%%%%%%%%%%%%%%%%%%%%%%%%%%%%%%%%%%%%%%%%%%%%%%%%%%%%%%%%%%%
48862@%%%%%%%%%%%%%%%%%%%%%%%%%%%%%%%%%%%%%%%%%%%%%%%%%%%%%%%%%%%%%%%%%%%%%%%%%%
48787@%%%%%%%%%%%%%%%%%%%%%%%%%%%%%%%%%%%%%%%%%%%%%%%%%%%%%%%%%%%%%%%%%%%%%%%%%%
48712@%%%%%%%%%%%%%%%%%%%%%%%%%%%%%%%%%%%%%%%%%%%%%%%%%%%%%%%%%%%%%%%%%%%%%%%%%%
48636@%%%%%%%%%%%%%%%%%%%%%%%%%%%%%%%%%%%%%%%%%%%%%%%%%%%%%%%%%%%%%%%%%%%%%%%%%%
48561@%%%%%%%%%%%%%%%%%%%%%%%%%%%%%%%%%%%%%%%%%%%%%%%%%%%%%%%%%%%%%%%%%%%%%%%%%%
48486@%%%%%%%%%%%%%%%%%%%%%%%%%%%%%%%%%%%%%%%%%%%%%%%%%%%%%%%%%%%%%%%%%%%%%%%%%%
48411@%%%%%%%%%%%%%%%%%%%%%%%%%%%%%%%%%%%%%%%%%%%%%%%%%%%%%%%%%%%%%%%%%%%%%%%%%%
48335@%%%%%%%%%%%%%%%%%%%%%%%%%%%%%%%%%%%%%%%%%%%%%%%%%%%%%%%%%%%%%%%%%%%%%%%%%%
48260@%%%%%%%%%%%%%%%%%%%%%%%%%%%%%%%%%%%%%%%%%%%%%%%%%%%%%%%%%%%%%%%%%%%%%%%%%%
48185@%%%%%%%%%%%%%%%%%%%%%%%%%%%%%%%%%%%%%%%%%%%%%%%%%%%%%%%%%%%%%%%%%%%%%%%%%%
48110@%%%%%%%%%%%%%%%%%%%%%%%%%%%%%%%%%%%%%%%%%%%%%%%%%%%%%%%%%%%%%%%%%%%%%%%%%%
48034@%%%%%%%%%%%%%%%%%%%%%%%%%%%%%%%%%%%%%%%%%%%%%%%%%%%%%%%%%%%%%%%%%%%%%%%%%%
47959@%%%%%%%%%%%%%%%%%%%%%%%%%%%%%%%%%%%%%%%%%%%%%%%%%%%%%%%%%%%%%%%%%%%%%%%%%%
47884@%%%%%%%%%%%%%%%%%%%%%%%%%%%%%%%%%%%%%%%%%%%%%%%%%%%%%%%%%%%%%%%%%%%%%%%%%%
47808@%%%%%%%%%%%%%%%%%%%%%%%%%%%%%%%%%%%%%%%%%%%%%%%%%%%%%%%%%%%%%%%%%%%%%%%%%%
47733@%%%%%%%%%%%%%%%%%%%%%%%%%%%%%%%%%%%%%%%%%%%%%%%%%%%%%%%%%%%%%%%%%%%%%%%%%%
47658@%%%%%%%%%%%%%%%%%%%%%%%%%%%%%%%%%%%%%%%%%%%%%%%%%%%%%%%%%%%%%%%%%%%%%%%%%%
47583@%%%%%%%%%%%%%%%%%%%%%%%%%%%%%%%%%%%%%%%%%%%%%%%%%%%%%%%%%%%%%%%%%%%%%%%%%%
47507@%%%%%%%%%%%%%%%%%%%%%%%%%%%%%%%%%%%%%%%%%%%%%%%%%%%%%%%%%%%%%%%%%%%%%%%%%%
47432@%%%%%%%%%%%%%%%%%%%%%%%%%%%%%%%%%%%%%%%%%%%%%%%%%%%%%%%%%%%%%%%%%%%%%%%%%%
47357@%%%%%%%%%%%%%%%%%%%%%%%%%%%%%%%%%%%%%%%%%%%%%%%%%%%%%%%%%%%%%%%%%%%%%%%%%%
47281@%%%%%%%%%%%%%%%%%%%%%%%%%%%%%%%%%%%%%%%%%%%%%%%%%%%%%%%%%%%%%%%%%%%%%%%%%%
47206@%%%%%%%%%%%%%%%%%%%%%%%%%%%%%%%%%%%%%%%%%%%%%%%%%%%%%%%%%%%%%%%%%%%%%%%%%%
47131@%%%%%%%%%%%%%%%%%%%%%%%%%%%%%%%%%%%%%%%%%%%%%%%%%%%%%%%%%%%%%%%%%%%%%%%%%%
47056@%%%%%%%%%%%%%%%%%%%%%%%%%%%%%%%%%%%%%%%%%%%%%%%%%%%%%%%%%%%%%%%%%%%%%%%%%%
46980@%%%%%%%%%%%%%%%%%%%%%%%%%%%%%%%%%%%%%%%%%%%%%%%%%%%%%%%%%%%%%%%%%%%%%%%%%%
46905@%%%%%%%%%%%%%%%%%%%%%%%%%%%%%%%%%%%%%%%%%%%%%%%%%%%%%%%%%%%%%%%%%%%%%%%%%%
46830@%%%%%%%%%%%%%%%%%%%%%%%%%%%%%%%%%%%%%%%%%%%%%%%%%%%%%%%%%%%%%%%%%%%%%%%%%%
46755@%%%%%%%%%%%%%%%%%%%%%%%%%%%%%%%%%%%%%%%%%%%%%%%%%%%%%%%%%%%%%%%%%%%%%%%%%%
46679@%%%%%%%%%%%%%%%%%%%%%%%%%%%%%%%%%%%%%%%%%%%%%%%%%%%%%%%%%%%%%%%%%%%%%%%%%%
46604@%%%%%%%%%%%%%%%%%%%%%%%%%%%%%%%%%%%%%%%%%%%%%%%%%%%%%%%%%%%%%%%%%%%%%%%%%%
46529@%%%%%%%%%%%%%%%%%%%%%%%%%%%%%%%%%%%%%%%%%%%%%%%%%%%%%%%%%%%%%%%%%%%%%%%%%%
46453@J%%%%%%%%%%%%%%%%%%%%%%%%%%%%%%%%%%%%%%%%%%%%%%%%%%%%%%%%%%%%%%%%%%%%%%%%%
46378A%%%%%%%%%%%%%%%%%%%%%%%%%%%%%%%%%%%%%%%%%%%%%%%%%%%%%%%%%%%%%%%%%%%%%%%%%%
46303A%%%%%%%%%%%%%%%%%%%%%%%%%%%%%%%%%%%%%%%%%%%%%%%%%%%%%%%%%%%%%%%%%%%%%%%%%%
46228A%%%%%%%%%%%%%%%%%%%%%%%%%%%%%%%%%%%%%%%%%%%%%%%%%%%%%%%%%%%%%%%%%%%%%%%%%%
46152A%%%%%%%%%%%%%%%%%%%%%%%%%%%%%%%%%%%%%%%%%%%%%%%%%%%%%%%%%%%%%%%%%%%%%%%%%%
46077A%%%%%%%%%%%%%%%%%%%%%%%%%%%%%%%%%%%%%%%%%%%%%%%%%%%%%%%%%%%%%%%%%%%%%%%%%%
46002A%%%%%%%%%%%%%%%%%%%%%%%%%%%%%%%%%%%%%%%%%%%%%%%%%%%%%%%%%%%%%%%%%%%%%%%%%%
45926A%%%%%%%%%%%%%%%%%%%%%%%%%%%%%%%%%%%%%%%%%%%%%%%%%%%%%%%%%%%%%%%%%%%%%%%%%%
45851A%%%%%%%%%%%%%%%%%%%%%%%%%%%%%%%%%%%%%%%%%%%%%%%%%%%%%%%%%%%%%%%%%%%%%%%%%%
45776A%%%%%%%%%%%%%%%%%%%%%%%%%%%%%%%%%%%%%%%%%%%%%%%%%%%%%%%%%%%%%%%%%%%%%%%%%%
45701A%%%%%%%%%%%%%%%%%%%%%%%%%%%%%%%%%%%%%%%%%%%%%%%%%%%%%%%%%%%%%%%%%%%%%%%%%%
45625A%%%%%%%%%%%%%%%%%%%%%%%%%%%%%%%%%%%%%%%%%%%%%%%%%%%%%%%%%%%%%%%%%%%%%%%%%%
45550A%%%%%%%%%%%%%%%%%%%%%%%%%%%%%%%%%%%%%%%%%%%%%%%%%%%%%%%%%%%%%%%%%%%%%%%%%%
45475A%%%%%%%%%%%%%%%%%%%%%%%%%%%%%%%%%%%%%%%%%%%%%%%%%%%%%%%%%%%%%%%%%%%%%%%%%%
45400A%%%%%%%%%%%%%%%%%%%%%%%%%%%%%%%%%%%%%%%%%%%%%%%%%%%%%%%%%%%%%%%%%%%%%%%%%%
45324A%%%%%%%%%%%%%%%%%%%%%%%%%%%%%%%%%%%%%%%%%%%%%%%%%%%%%%%%%%%%%%%%%%%%%%%%%%
45249A%%%%%%%%%%%%%%%%%%%%%%%%%%%%%%%%%%%%%%%%%%%%%%%%%%%%%%%%%%%%%%%%%%%%%%%%%%
45174A%%%%%%%%%%%%%%%%%%%%%%%%%%%%%%%%%%%%%%%%%%%%%%%%%%%%%%%%%%%%%%%%%%%%%%%%%%
45098A%%%%%%%%%%%%%%%%%%%%%%%%%%%%%%%%%%%%%%%%%%%%%%%%%%%%%%%%%%%%%%%%%%%%%%%%%%
45023A%%%%%%%%%%%%%%%%%%%%%%%%%%%%%%%%%%%%%%%%%%%%%%%%%%%%%%%%%%%%%%%%%%%%%%%%%%
44948A%%%%%%%%%%%%%%%%%%%%%%%%%%%%%%%%%%%%%%%%%%%%%%%%%%%%%%%%%%%%%%%%%%%%%%%%%%
44873A%%%%%%%%%%%%%%%%%%%%%%%%%%%%%%%%%%%%%%%%%%%%%%%%%%%%%%%%%%%%%%%%%%%%%%%%%%
44797A%%%%%%%%%%%%%%%%%%%%%%%%%%%%%%%%%%%%%%%%%%%%%%%%%%%%%%%%%%%%%%%%%%%%%%%%%%
44722A%%%%%%%%%%%%%%%%%%%%%%%%%%%%%%%%%%%%%%%%%%%%%%%%%%%%%%%%%%%%%%%%%%%%%%%%%%
44647A%%%%%%%%%%%%%%%%%%%%%%%%%%%%%%%%%%%%%%%%%%%%%%%%%%%%%%%%%%%%%%%%%%%%%%%%%%
44571A%%%%%%%%%%%%%%%%%%%%%%%%%%%%%%%%%%%%%%%%%%%%%%%%%%%%%%%%%%%%%%%%%%%%%%%%%%
44496A%%%%%%%%%%%%%%%%%%%%%%%%%%%%%%%%%%%%%%%%%%%%%%%%%%%%%%%%%%%%%%%%%%%%%%%%%%
44421A%%%%%%%%%%%%%%%%%%%%%%%%%%%%%%%%%%%%%%%%%%%%%%%%%%%%%%%%%%%%%%%%%%%%%%%%%%
44346A%%%%%%%%%%%%%%%%%%%%%%%%%%%%%%%%%%%%%%%%%%%%%%%%%%%%%%%%%%%%%%%%%%%%%%%%%%
44270A%%%%%%%%%%%%%%%%%%%%%%%%%%%%%%%%%%%%%%%%%%%%%%%%%%%%%%%%%%%%%%%%%%%%%%%%%%
44195A%%%%%%%%%%%%%%%%%%%%%%%%%%%%%%%%%%%%%%%%%%%%%%%%%%%%%%%%%%%%%%%%%%%%%%%%%%
44120A%%%%%%%%%%%%%%%%%%%%%%%%%%%%%%%%%%%%%%%%%%%%%%%%%%%%%%%%%%%%%%%%%%%%%%%%%%
44045A%%%%%%%%%%%%%%%%%%%%%%%%%%%%%%%%%%%%%%%%%%%%%%%%%%%%%%%%%%%%%%%%%%%%%%%%%%
43969A%%%%%%%%%%%%%%%%%%%%%%%%%%%%%%%%%%%%%%%%%%%%%%%%%%%%%%%%%%%%%%%%%%%%%%%%%%
43894A%%%%%%%%%%%%%%%%%%%%%%%%%%%%%%%%%%%%%%%%%%%%%%%%%%%%%%%%%%%%%%%%%%%%%%%%%%
43819A%%%%%%%%%%%%%%%%%%%%%%%%%%%%%%%%%%%%%%%%%%%%%%%%%%%%%%%%%%%%%%%%%%%%%%%%%%
43743A%%%%%%%%%%%%%%%%%%%%%%%%%%%%%%%%%%%%%%%%%%%%%%%%%%%%%%%%%%%%%%%%%%%%%%%%%%
43668A%%%%%%%%%%%%%%%%%%%%%%%%%%%%%%%%%%%%%%%%%%%%%%%%%%%%%%%%%%%%%%%%%%%%%%%%%%
43593A%%%%%%%%%%%%%%%%%%%%%%%%%%%%%%%%%%%%%%%%%%%%%%%%%%%%%%%%%%%%%%%%%%%%%%%%%%
43518A%%%%%%%%%%%%%%%%%%%%%%%J%%%%%%%%%%%%%%%%%%%%%%%%%%%%%%%%%%%%%%%%%%%%%%%%%%
43442B%%%%%%%%%%%%%%%%%%%%%%%%%%%%%%%%%%%%%%%%%%%%%%%%%%%%%%%%%%%%%%%%%%%%%%%%%%
43367B%%%%%%%%%%%%%%%%%%%%%%%%%%%%%%%%%%%%%%%%%%%%%%%%%%%%%%%%%%%%%%%%%%%%%%%%%%
43292B%%%%%%%%%%%%%%%%%%%%%%%%%%%%%%%%%%%%%%%%%%%%%%%%%%%%%%%%%%%%%%%%%%%%%%%%%%
43216B%%%%%%%%%%%%%%%%%%%%%%%%%%%%%%%%%%%%%%%%%%%%%%%%%%%%%%%%%%%%%%%%%%%%%%%%%%
43141B%%%%%%%%%%%%%%%%%%%%%%%%%%%%%%%%%%%%%%%%%%%%%%%%%%%%%%%%%%%%%%%%%%%%%%%%%%
43066B%%%%%%%%%%%%%%%%%%%%%%%%%%%%%%%%%%%%%%%%%%%%%%%%%%%%%%%%%%%%%%%%%%%%%%%%%%
42991B%%%%%%%%%%%%%%%%%%%%%%%%%%%%%%%%%%%%%%%%%%%%%%%%%%%%%%%%%%%%%%%%%%%%%%%%%%
42915B%%%%%%%%%%%%%%%%%%%%%%%%%%%%%%%%%%%%%%%%%%%%%%%%%%%%%%%%%%%%%%%%%%%%%%%%%%
42840B%%%%%%%%%%%%%%%%%%%%%%%%%%%%%%%%%%%%%%%%%%%%%%%%%%%%%%%%%%%%%%%%%%%%%%%%%%
42765B%%%%%%%%%%%%%%%%%%%%%%%%%%J%%%%%%%%%%%%%%%%%%%%%%%%%%%%%%%%%%%%%%%%%%%%%%%
42690C%%%%%%%%%%%%%%%%%%%%%%%%%%%%%%%%%%%%%%%%%%%%%%%%%%%%%%%%%%%%%%%%%%%%%%%%%%
42614C%%%%%%%%%%%%%%%%%%%%%%%%%%%%%%%%%%%%%%%%%%%%%%%%%%%%%%%%%%%%%%%%%%%%%%%%%%
42539C%%%%%%%%%%%%%%%%%%%%%%%%%%%%%%%%%%%%%%%%%%%%%%%%%%%%%%%%%%%%%%%%%%%%%%%%%%
42464C%%%%%%%%%%%%%%%%%%%%%%%%%%%%%%%%%%%%%%%%%%%%%%%%%%%%%%%%%%%%%%%%%%%%%%%%%%
42388C%%%%%%%%%%%%%%%%%%%%%%%%%%%%%%%J%%%%%%%%%%%%%%%%%%%%%%%%%%%%%%%%%%%%%%%%%%
42313D%%%%%%%%%%%%%%%%%%%%%%%%%%%%%%%%%%%%%%%%%%%%%%%%%%%%%%%%%%%%%%%%%%%%%%%%%%
42238D%%%%%%%%%%%%%%%%%%%%%%%%%%%%%%%%%%%%%%%%%%%%%%%%%%%%%%%%%%%%%%%%%%%%%%%%%%
42163D%%%%%%%%%%%%%%%%%%%%%%%%%%%%%%%%%%%%%%%%%%%%J%%%%%%%%%%%%%%%%%%%%%%%%%%%%%
42087E%%%%%%%%%%%%%%%%%%%%%%%%%%%%%%%%%%%%%%%%%%%%%%%%%%%%%%%%%%%%%%%%%%%%%%%%%%
42012E%%%%%%%%%%%%%%%%%%%%%%%%%%%%%%%%%%%%%%%%%%%%%%%%%%%%%%%%%%%%%J%%%%%%%%%%%%
41937F%%%%%%%%%%%%%%%%%%%%%%%%%%%%%%%%%%%%%%%%%%%%%%%%%%%%%%%%%%%%%%%%%%%%%%%%%%
41861F%%%%%%%%%%%%%%%%%%%%%%%%%%%%%%%%%%%%%J%%%%%%%%%%%%%%%%%%%%%%%%%%%%%%%%%%%%
41786G%%%%%%%%%%%%%%%%%%%%%%%%%%%%%%%%%%%%%%%%%%%%%%%%%%%%%%%%%%%%%J%%%%%%%%%%%%
41711H%%%%%%%%%%%%%%%%%%%%%%%%%%%%%%%%%%%%%%%%%%%%%%%%%%%%%%%%%%%%%%%%%%J%%%%%%%
41636I%%%%%%%%%%%%%%%%%%%%%%%%%%%%%%%%%%%%%%%%%%%%%%%%%%%%%%%%%%J%%%%%%%%%%%%%%%
41560A0%%%%%%%%%%%%%%%%%%%%%%%%%%%%%%%%%%%%%%%%%J%%%%%%%%%%%%%%%%%%%%%%%%%%%%%%%
41486A1%%%%%%%%%%%%%%%%J%%%%%%%%%%%%%%%%%%%%%%%%%%%%%%%%%%%%%%%%%%J%%%%%%%%%%%%%
41412A3%%%%%%%%%%%%%%%%%%%%%%%%J%%%%%%%%%%%%%%%%%%%%%%%%%%%%%%%%J%%%%%%%%%%%%%%%
41338A5%%%%%%%%%%%%%%%J%%%%%%%%%%%%%%%%%%%%%%%%%%J%%%%%%%%%%%%%%%%%%%%%%%%J%%%%%
41263A8%%%%%%%%%%%%%%%%%J%%%%%%%%%%%%%%%%%%%%J%%%%%%%%%%%%%%%%%%%J%%%%%%%%%%%%%%
41189B1%%%J%%%%%%%%%%%%%%%%J%%%%%%%%%%%%%%%J%%%%%%%%%%%%%J%%%%%%%%%%%%%J%%%%%%%%
41115B6%%%%J%%%%%%%%%%%%J%%%%%%%%%%%J%%%%%%%%%%J%%%%%%%%%J%%%%%%%%%J%%%%%%%%%J%%
41041C3%%%%%%J%%%%%%%%J%%%%%%%J%%%%%%%J%%%%%%%J%%%%%%J%%%%%%%J%%%%%J%%%%%%J%%%%%
40966D2J%%%%%%J%%%%%J%%%%J%%%%%J%%%%J%%%%J%%%%J%%%%J%%%%J%%%%J%%%J%%%%J%%%J%%%J%
40892E7%%J%%%J%%%J%%J%%%J%%%J%%J%%J%%%J%%J%%J%%J%%J%%J%%J%%J%%J%J%%J%%J%J%%J%J%%
40818H0J%J%J%%J%J%J%J%J%J%J%J%J%J%J%J%J%J%JJ%J%J%JJ%J%JJ%JJ%JJ%JJ%JJ%JJJ%JJ%JJJJ
40743A23%JJJJ%JJJJJJ%JJJJJJJJJJJJJJJJJJJJJJKJJJJJKJJJKJJJKJJKJKJJKJKJKJKKJKJKKJK
40670B07KKJKKKKKKJKKKLKKKKKKLKKLKKLKLKLLKLLLKLLLLLLLMLLLMLMLMLMMMMMMMMMNMMNNMNNN
40597D22NNNONNOOOOOOOOPPOPPQPPQQQQQRQRRRJ0RJ0J0J1J0J1J1J1J2J1J2J3J2J3J4J3J4J4J5
40544H77J5J5J6J6J7J7J8J7J9J9J9K0K1K1K2K2K3K4K4K5K6K7K7K9K9L0L1L2L3L5L5L6L8L9M0M2
40507A796M3M5M6M8N0N2N3N5N8O0O2O5O7O9P3P6P8Q2Q6Q9R3R7J01J06J11J15J21J27J32J39J46
40476D341J52J60J67J76J85J94K04K14K25K37K49K62K75K89L05L20L36L54L71L89M08M28M46
40453A0687M67M86N05N23N42N57N71N83N92N96N97N91N80N63N38N06M65M18L63L00K32J59Q3N
40428B1509p3j51k23k92l56m11m61n01n34n60n79n90n96n97n92n84n73n59n44n26n07m88m69
40405A0743m49m30m10l92l73l56l38l22l06k92k77k63k50k39k26k16k05j95j86j77j68j61j53
40381D359j47j39j33j28j21j16j12j06j02r7r4q9q6q3p9p6p3p0o7o5o3o0n8n5n4n2n0m8m6m5m4
40350A801m2m0l9l8l7l5l5l3l2l1l0l0k8k8k6k6k6k4k4k3k2k2k2k0k0k0j9j8j8j8j7j7j6j6j5
40314H94j5j5j4j4j4j3j3j3j2j2j2j2j1j1j1j0j1j0rj0j0rrrqrqqqqqpqppppopoopoonoononnn
40261D28onmnnmnnmmmnmmmmmlmmlmlmlmllllmlllkllllkllklklklkklkklkkkkkkkkkkkkkkkjkk
40188B09kjkkjkkjkjkjkjkjkjkjjkjjkjjjkjjjkjjjjjjkjjjjjjjjjjjjjjjjjjj%jjjjjj%jjjjj
40115A23%jjj%jjj%jjj%jj%jj%jj%jj%j%jj%jj%j%j%jj%j%j%j%j%j%j%j%j%j%j%j%j%j%%j%j%j
40042H1%%j%j%%j%j%%j%j%%j%%j%j%%j%%j%%j%%j%%j%%j%%j%%%j%%j%%%j%%j%%%j%%%j%%j%%%j
39967E7%%%j%%%j%%%%j%%%j%%%%j%%%j%%%%j%%%%j%%%%j%%%%j%%%%j%%%%%j%%%%%j%%%%%j%%%%
39893D3%j%%%%%j%%%%%%j%%%%%%j%%%%%%j%%%%%%j%%%%%%%j%%%%%%%j%%%%%%%j%%%%%%%%j%%%%
39819C3%%%%j%%%%%%%%%j%%%%%%%%%j%%%%%%%%%%j%%%%%%%%%%j%%%%%%%%%%%j%%%%%%%%%%%j%%
39745B6%%%%%%%%%%j%%%%%%%%%%%%%j%%%%%%%%%%%%%%j%%%%%%%%%%%%%%%j%%%%%%%%%%%%%%%%j
39670B1%%%%%%%%%%%%%%%%%j%%%%%%%%%%%%%%%%%%%j%%%%%%%%%%%%%%%%%%%%j%%%%%%%%%%%%%%
39596A8%%%%%%%%j%%%%%%%%%%%%%%%%%%%%%%%%j%%%%%%%%%%%%%%%%%%%%%%%%%%%j%%%%%%%%%%%
39522A5%%%%%%%%%%%%%%%%%%j%%%%%%%%%%%%%%%%%%%%%%%%%%%%%%%%%j%%%%%%%%%%%%%%%%%%%%
39447A3%%%%%%%%%%%%%%%%%j%%%%%%%%%%%%%%%%%%%%%%%%%%%%%%%%%%%%%%%%%%j%%%%%%%%%%%%
39373A1%%%%%%%%%%%%%%%%%%%%%%%%%%%%%%%%%%%%j%%%%%%%%%%%%%%%%%%%%%%%%%%%%%%%%%%%%
39299A0%%%%%%%%%%%%%%%%%%%%j%%%%%%%%%%%%%%%%%%%%%%%%%%%%%%%%%%%%%%%%%%%%%%%%%%%%
39225I%%%%%%%%%%%%%%j%%%%%%%%%%%%%%%%%%%%%%%%%%%%%%%%%%%%%%%%%%%%%%%%%%%%%%%%%%%
39149H%%%%%%%%%%%%%%%%%%%%j%%%%%%%%%%%%%%%%%%%%%%%%%%%%%%%%%%%%%%%%%%%%%%%%%%%%%
39074G%%%%%%%%%%%%%%%%%%%%%%%%%%%%%%%%%%%%%%%%%%%%%%j%%%%%%%%%%%%%%%%%%%%%%%%%%%
38999F%%%%%%%%%%%%%%%%%%%%%%%%%%%%%%%%%%%%%%%%%%%%%%%%%%%%%%%%%%%%%%%%%%%%%%%%%%
38924F%%%%%%%%%%%%%%%%%%%%%%%%%j%%%%%%%%%%%%%%%%%%%%%%%%%%%%%%%%%%%%%%%%%%%%%%%%
38848E%%%%%%%%%%%%%%%%%%%%%%%%%%%%%%%%%%%%%%%%%%%%%%%%%%%%%%%%%%%%%%%%%%%%%%%%%%
38773E%%%%%%%%%%%%%%%%%%%%%%%%%%%%%%%%%%%%%%%%%%%%%%%j%%%%%%%%%%%%%%%%%%%%%%%%%%
38698D%%%%%%%%%%%%%%%%%%%%%%%%%%%%%%%%%%%%%%%%%%%%%%%%%%%%%%%%%%%%%%%%%%%%%%%%%%
38622D%%%%%%%%%%%%%%%%%%%%%%%%%%%%%%%%%%%%%%%%%%%%%%%%%%%%%%%%%%%%%%%%%%%%%%%%%%
38547D%%%%%%%%%%%%%%%%%%%%%%%%%%%%%%%%%%%%%%%%%%%%%%%%%%%%%%%%%%%%%%%%%%%%%%%j%%
38472C%%%%%%%%%%%%%%%%%%%%%%%%%%%%%%%%%%%%%%%%%%%%%%%%%%%%%%%%%%%%%%%%%%%%%%%%%%
38397C%%%%%%%%%%%%%%%%%%%%%%%%%%%%%%%%%%%%%%%%%%%%%%%%%%%%%%%%%%%%%%%%%%%%%%%%%%
38321C%%%%%%%%%%%%%%%%%%%%%%%%%%%%%%%%%%%%%%%%%%%%%%%%%%%%%%%%%%%%%%%%%%%%%%%%%%
38246C%%%%%%%%%%%%%%%%%%%%%%%%%%%%%%%%%%%%%%%%%%%%%%%%%%%%%%%%%%%%%%%%%%%%%%%%%%
38171C%%%%%%%%%%%%%%%%%%%%%%%%%%%%%%%%%%%%%%%%%%%%%%%%%%%%%%%%%%%%%%%%%%%%%%%%%%
38096C%%%%%%%%%%%%%%%%%%%%%%%%%%%%%%j%%%%%%%%%%%%%%%%%%%%%%%%%%%%%%%%%%%%%%%%%%%
38020B%%%%%%%%%%%%%%%%%%%%%%%%%%%%%%%%%%%%%%%%%%%%%%%%%%%%%%%%%%%%%%%%%%%%%%%%%%
37945B%%%%%%%%%%%%%%%%%%%%%%%%%%%%%%%%%%%%%%%%%%%%%%%%%%%%%%%%%%%%%%%%%%%%%%%%%%
37870B%%%%%%%%%%%%%%%%%%%%%%%%%%%%%%%%%%%%%%%%%%%%%%%%%%%%%%%%%%%%%%%%%%%%%%%%%%
37794B%%%%%%%%%%%%%%%%%%%%%%%%%%%%%%%%%%%%%%%%%%%%%%%%%%%%%%%%%%%%%%%%%%%%%%%%%%
37719B%%%%%%%%%%%%%%%%%%%%%%%%%%%%%%%%%%%%%%%%%%%%%%%%%%%%%%%%%%%%%%%%%%%%%%%%%%
37644B%%%%%%%%%%%%%%%%%%%%%%%%%%%%%%%%%%%%%%%%%%%%%%%%%%%%%%%%%%%%%%%%%%%%%%%%%%
37569B%%%%%%%%%%%%%%%%%%%%%%%%%%%%%%%%%%%%%%%%%%%%%%%%%%%%%%%%%%%%%%%%%%%%%%%%%%
37493B%%%%%%%%%%%%%%%%%%%%%%%%%%%%%%%%%%%%%%%%%%%%%%%%%%%%%%%%%%%%%%%%%%%%%%%%%%
37418B%%%%%%%%%%%%%%%%%%%%%%%%%%%%%%%%%%%%%%%%%%%%%%%%%%%%%%%%%%%%%%%%%%%%%%%%%%
37343B%%%%%%%%%%%%%%%%%%%%%%%%%%%%%%%%%%%%%%%%%%%%%%%%%%%%%%%%%%%%%%%%%%%%%%%%%%
37267B%%%%%%%%%%%%%%%%%%%%%%%%%%%%%%%%%%%%%%%%%%%%%%%%%%%%%%%%%%%%%%%%%%%%%%%%%%
37192B%%%%%%%%%%%%%%%j%%%%%%%%%%%%%%%%%%%%%%%%%%%%%%%%%%%%%%%%%%%%%%%%%%%%%%%%%%
37117A%%%%%%%%%%%%%%%%%%%%%%%%%%%%%%%%%%%%%%%%%%%%%%%%%%%%%%%%%%%%%%%%%%%%%%%%%%
37042A%%%%%%%%%%%%%%%%%%%%%%%%%%%%%%%%%%%%%%%%%%%%%%%%%%%%%%%%%%%%%%%%%%%%%%%%%%
36966A%%%%%%%%%%%%%%%%%%%%%%%%%%%%%%%%%%%%%%%%%%%%%%%%%%%%%%%%%%%%%%%%%%%%%%%%%%
36891A%%%%%%%%%%%%%%%%%%%%%%%%%%%%%%%%%%%%%%%%%%%%%%%%%%%%%%%%%%%%%%%%%%%%%%%%%%
36816A%%%%%%%%%%%%%%%%%%%%%%%%%%%%%%%%%%%%%%%%%%%%%%%%%%%%%%%%%%%%%%%%%%%%%%%%%%
36741A%%%%%%%%%%%%%%%%%%%%%%%%%%%%%%%%%%%%%%%%%%%%%%%%%%%%%%%%%%%%%%%%%%%%%%%%%%
36665A%%%%%%%%%%%%%%%%%%%%%%%%%%%%%%%%%%%%%%%%%%%%%%%%%%%%%%%%%%%%%%%%%%%%%%%%%%
36590A%%%%%%%%%%%%%%%%%%%%%%%%%%%%%%%%%%%%%%%%%%%%%%%%%%%%%%%%%%%%%%%%%%%%%%%%%%
36515A%%%%%%%%%%%%%%%%%%%%%%%%%%%%%%%%%%%%%%%%%%%%%%%%%%%%%%%%%%%%%%%%%%%%%%%%%%
36439A%%%%%%%%%%%%%%%%%%%%%%%%%%%%%%%%%%%%%%%%%%%%%%%%%%%%%%%%%%%%%%%%%%%%%%%%%%
36364A%%%%%%%%%%%%%%%%%%%%%%%%%%%%%%%%%%%%%%%%%%%%%%%%%%%%%%%%%%%%%%%%%%%%%%%%%%
36289A%%%%%%%%%%%%%%%%%%%%%%%%%%%%%%%%%%%%%%%%%%%%%%%%%%%%%%%%%%%%%%%%%%%%%%%%%%
36214A%%%%%%%%%%%%%%%%%%%%%%%%%%%%%%%%%%%%%%%%%%%%%%%%%%%%%%%%%%%%%%%%%%%%%%%%%%
36138A%%%%%%%%%%%%%%%%%%%%%%%%%%%%%%%%%%%%%%%%%%%%%%%%%%%%%%%%%%%%%%%%%%%%%%%%%%
36063A%%%%%%%%%%%%%%%%%%%%%%%%%%%%%%%%%%%%%%%%%%%%%%%%%%%%%%%%%%%%%%%%%%%%%%%%%%
35988A%%%%%%%%%%%%%%%%%%%%%%%%%%%%%%%%%%%%%%%%%%%%%%%%%%%%%%%%%%%%%%%%%%%%%%%%%%
35912A%%%%%%%%%%%%%%%%%%%%%%%%%%%%%%%%%%%%%%%%%%%%%%%%%%%%%%%%%%%%%%%%%%%%%%%%%%
35837A%%%%%%%%%%%%%%%%%%%%%%%%%%%%%%%%%%%%%%%%%%%%%%%%%%%%%%%%%%%%%%%%%%%%%%%%%%
35762A%%%%%%%%%%%%%%%%%%%%%%%%%%%%%%%%%%%%%%%%%%%%%%%%%%%%%%%%%%%%%%%%%%%%%%%%%%
35687A%%%%%%%%%%%%%%%%%%%%%%%%%%%%%%%%%%%%%%%%%%%%%%%%%%%%%%%%%%%%%%%%%%%%%%%%%%
35611A%%%%%%%%%%%%%%%%%%%%%%%%%%%%%%%%%%%%%%%%%%%%%%%%%%%%%%%%%%%%%%%%%%%%%%%%%%
35536A%%%%%%%%%%%%%%%%%%%%%%%%%%%%%%%%%%%%%%%%%%%%%%%%%%%%%%%%%%%%%%%%%%%%%%%%%%
35461A%%%%%%%%%%%%%%%%%%%%%%%%%%%%%%%%%%%%%%%%%%%%%%%%%%%%%%%%%%%%%%%%%%%%%%%%%%
35386A%%%%%%%%%%%%%%%%%%%%%%%%%%%%%%%%%%%%%%%%%%%%%%%%%%%%%%%%%%%%%%%%%%%%%%%%%%
35310A%%%%%%%%%%%%%%%%%%%%%%%%%%%%%%%%%%%%%%%%%%%%%%%%%%%%%%%%%%%%%%%%%%%%%%%%%%
35235A%%%%%%%%%%%%%%%%%%%%%%%%%%%%%%%%%%%%%%%%%%%%%%%%%%%%%%%%%%%%%%%%%%%%%%%%%%
35160A%%%%%%%%%%%%%%%%%%%%%%%%%%%%%%%%%%%%%%%%%%%%%%%%%%%%%%%%%%%%%%%%%%%%%%%%%%
35084A%%%%%%%%%%%%%%%%%%%%%%%%%%%%%%%%%%%%%%%%%%%%%%%%%%%%%%%%%%%%%%%%%%%%%%%%%%
35009A%%%%%%%%%%%%%%%%%%%%%%%%%%%%%%%%%%%%%%%%%%%%%%%%%%%%%%%%%%%%%%%%%%%%%%%%%%
34934A%%%%%%%%%%%%%%%%%%%%%%%%%%%%%%%%%%%%%%%%%%%%%%%%%%%%%%%%%%%%%%%%%%%%%%%%%%
34859A%%%%%%%%%%%%%%%%%%%%%%%%%%%%%%%%%%%%%%%%%%%%%%%%%%%%%%%%%%%%%%%%%%%%%%%%%%
34783A%%%%%%%%%%%%%%%%%%%%%%%%%%%%%%%%%%%%%%%%%%%%%%%%%%%%%%%%%%%%%%%%%%%%%%%%%%
34708A%%%%%%%%%%%%%%%%%%%%%%%%%%%%%%%%%%%%%%%%%%%%%%%%%%%%%%%%%%%%%%%%%%%%%%%%%%
34633A%%%%%%%%%%%%%%%%%%%%%%%%%%%%%%%%%%%%%%%%%%%%%%%%%%%%%%%%%%%%%%%%%%%%%%%%%%
34557A%%%%%%%%%%%%%%%%%%%%%%%%%%%%%%%%%%%%%%%%%%%%%%%%%%%%%%%%%%%%%%%%%%%%%%%%%%
34482A%%%%%%%%%%%%%%%%%%%%%%%%%%%%%%%%%%%%%%%%%%%%%%%%%%%%%%%%%%%%%%%%%%%%%%%%%%
34407A%%%%%%%%%%%%%%%%%%%%%%%%%%%%%%%%%%%%%%%%%%%%%%%%%%%%%%%%%%%%%%%%%%%%%%%%%%
34332A%%%%%%%%%%%%%%%%%%%%%%%%%%%%%%%%%%%%%%%%%%%%%%%%%%%%%%%%%%%%%%%%%%%%%%%%%%
34256A%%%%%%%%%%%%%%%%%%%%%%%%%%%%%%%%%%%%%%%%%%%%%%%%%%%%%%%%%%%%%%%%%%%%%%%%%%
34181A%%%%%%%%%%%%%%%%%%%%%%%%%%%%%%%%%%%%%%%%%%%%%%%%%%%%%%%%%%%%%%%%%%%%%%%%%%
34106A%%%%%%%%%%%%%%%%%%%%%%%%%%%%%%%%%%%%%%%%%%%%%%%%%%%%%%%%%%%%%%%%%%%%%%%%%%
34031A%%%%%%%%%%%%%%%%%%%%%%%%%%%%%%%%%%%%%%%%%%%%%%%%%%%%%%%%%%%%%%%%%%%%%%%%%%
33955A%%%%%%%%%%%%%%%%%%%%%%%%%%%%%%%%%%%%%%%%%%%%%%%%%%%%%%%%%%%%%%%%%%%%%%%%%%
33880A%%%%%%%%%%%%%%%%%%%%%%%%%%%%%%%%%%%%%%%%%%%%%%%%%%%%%%%%%%%%%%%%%%%%%%%%%%
33805A%%%%%%%%%%%%%%%%%%%%%%%%%%%%%%%%%%%%%%%%%%%%%%%%%%%%%%%%%%%%%%%%%%%%%%%%%%
33729A%%%%%%%%%%%%%%%%%%%%%%%%%%%%%%%%%%%%%%%%%%%%%%%%%%%%%%%%%%%%%%%%%%%%%%%%%%
33654A%%%%%%%%%%%%%%%%%%%%%%%%%%%%%%%%%%%%%%%%%%%%%%%%%%%%%%%%%%%%%%%%%%%%%%%%%%
33579A%%%%%%%%%%%%%%%%%%%%%%%%%%%%%%%%%%%%%%%%%%%%%%%%%%%%%%%%%%%%%%%%%%%%%%%%%%
33504A%%%%%%%%%%%%%%%%%%%%%%%%%%%%%%%%%%%%%%%%%%%%%%%%%%%%%%%%%%%%%%%%%%%%%%%%%%
33428A%%%%%%%%%%%%%%%%%%%%%%%%%%%%%%%%%%%%%%%%%%%%%%%%%%%%%%%%%%%%%%%%%%%%%%%%%%
33353A%%%%%%%%%%%%%%%%%%%%%%%%%%%%%%%%%%%%%%%%%%%%%%%%%%%%%%%%%%%%%%%%%%%%%%%%%%
33278A%%%%%%%%%%%%%%%%%%%%%%%%%%%%%%%%%%%%%%%%%%%%%%%%%%%%%%%%%%%%%%%%%%%%%%%%%%
33202A%%%%%%%%%%%%%%%%%%%%%%%%%%%%%%%%%%%%%%%%%%%%%%%%%%%%%%%%%%%%%%%%%%%%%%%%%%
33127A%%%%%%%%%%%%%%%%%%%%%%%%%%%%%%%%%%%%%%%%%%%%%%%%%%%%%%%%%%%%%%%%%%%%%%%%%%
33052A%%%%%%%%%%%%%%%%%%%%%%%%%%%%%%%%%%%%%%%%%%%%%%%%%%%%%%%%%%%%%%%%%%%%%%%%%%
32977A%%%%%%%%%%%%%%%%%%%%%%%%%%%%%%%%%%%%%%%%%%%%%%%%%%%%%%%%%%%%%%%%%%%%%%%%%%
32901A%%%%%%%%%%%%%%%%%%%%%%%%%%%%%%%%%%%%%%%%%%%%%%%%%%%%%%%%%%%%%%%%%%%%%%%%%%
32826A%%%%%%%%%%%%%%%%%%%%%%%%%%%%%%%%%%%%%%%%%%%%%%%%%%%%%%%%%%%%%%%%%%%%%%%%%%
32751A%%%%%%%%%%%%%%%%%%%%%%%%%%%%%%%%%%%%%%%%%%%%%%%%%%%%%%%%%%%%%%%%%%%%%%%%%%
32676A%%%%%%%%%%%%%%%%%%%%%%%%%%%%%%%%%%%%%%%%%%%%%%%%%%%%%%%%%%%%%%%%%%%%%%%%%%
32600A%%%%%%%%%%%%%%%%%%%%%%%%%%%%%%%%%%%%%%%%%%%%%%%%%%%%%%%%%%%%%%%%%%%%%%%%%%
32525A%%%%%%%%%%%%%%%%%%%%%%%%%%%%%%%%%%%%%%%%%%%%%%%%%%%%%%%%%%%%%%%%%%%%%%%%%%
32450A%%%%%%%%%%%%%%%%%%%%%%%%%%%%%%%%%%%%%%%%%%%%%%%%%%%%%%%%%%%%%%%%%%%%%%%%%%
32374A%%%%%%%%%%%%%%%%%%%%%%%%%%%%%%%%%%%%%%%%%%%%%%%%%%%%%%%%%%%%%%%%%%%%%%%%%%
32299A%%%%%%%%%%%%%%%%%%%%%%%%%%%%%%%%%%%%%%%%%%%%%%%%%%%%%%%%%%%%%%%%%%%%%%%%%%
32224A%%%%%%%%%%%%%%%%%%%%%%%%%%%%%%%%%%%%%%%%%%%%%%%%%%%%%%%%%%%%%%%%%%%%%%%%%%
32149A%%%%%%%%%%%%%%%%%%%%%%%%%%%%%%%%%%%%%%%%%%%%%%%%%%%%%%%%%%%%%%%%%%%%%%%%%%
32073A%%%%%%%%%%%%%%%%%%%%%%%%%%%%%%%%%%%%%%%%%%%%%%%%%%%%%%%%%%%%%%%%%%%%%%%%%%
31998A%%%%%%%%%%%%%%%%%%%%%%%%%%%%%%%%%%%%%%%%%%%%%%%%%%%%%%%%%%%%%%%%%%%%%%%%%%
31923A%%%%%%%%%%%%%%%%%%%%%%%%%%%%%%%%%%%%%%%%%%%%%%%%%%%%%%%%%%%%%%%%%%%%%%%%%%
31847A%%%%%%%%%%%%%%%%%%%%%%%%%%%%%%%%%%%%%%%%%%%%%%%%%%%%%%%%%%%%%%%%%%%%%%%%%%
31772A%%%%%%%%%%%%%%%%%%%%%%%%%%%%%%%%%%%%%%%%%%%%%%%%%%%%%%%%%%%%%%%%%%%%%%%%%%
31697A%%%%%%%%%%%%%%%%%%%%%%%%%%%%%%%%%%%%%%%%%%%%%%%%%%%%%%%%%%%%%%%%%%%%%%%%%%
31622A%%%%%%%%%%%%%%%%%%%%%%%%%%%%%%%%%%%%%%%%%%%%%%%%%%%%%%%%%%%%%%%%%%%%%%%%%%
31546A%%%%%%%%%%%%%%%%%%%%%%%%%%%%%%%%%%%%%%%%%%%%%%%%%%%%%%%%%%%%%%%%%%%%%%%%%%
31471A%%%%%%%%%%%%%%%%%%%%%%%%%%%%%%%%%%%%%%%%%%%%%%%%%%%%%%%%%%%%%%%%%%%%%%%%%%
31396A%%%%%%%%%%%%%%%%%%%%%%%%%%%%%%%%%%%%%%%%%%%%%%%%%%%%%%%%%%%%%%%%%%%%%%%%%%
31321A%%%%%%%%%%%%%%%%%%%%%%%%%%%%%%%%%%%%%%%%%%%%%%%%%%%%%%%%%%%%%%%%%%%%%%%%%%
31245A%%%%%%%%%%%%%%%%%%%%%%%%%%%%%%%%%%%%%%%%%%%%%%%%%%%%%%%%%%%%%%%%%%%%%%%%%%
31170A%%%%%%%%%%%%%%%%%%%%%%%%%%%%%%%%%%%%%%%%%%%%%%%%%%%%%%%%%%%%%%%%%%%%%%%%%%
31095A%%%%%%%%%%%%%%%%%%%%%%%%%%%%%%%%%%%%%%%%%%%%%%%%%%%%%%%%%%%%%%%%%%%%%%%%%%
31019A%%%%%%%%%%%%%%%%%%%%%%%%%%%%%%%%%%%%%%%%%%%%%%%%%%%%%%%%%%%%%%%%%%%%%%%%%%
30944A%%%%%%%%%%%%%%%%%%%%%%%%%%%%%%%%%%%%%%%%%%%%%%%%%%%%%%%%%%%%%%%%%%%%%%%%%%
30869A%%%%%%%%%%%%%%%%%%%%%%%%%%%%%%%%%%%%%%%%%%%%%%%%%%%%%%%%%%%%%%%%%%%%%%%%%%
30794A%%%%%%%%%%%%%%%%%%%%%%%%%%%%%%%%%%%%%%%%%%%%%%%%%%%%%%%%%%%%%%%%%%%%%%%%%%
30718A%%%%%%%%%%%%%%%%%%%%%%%%%%%%%%%%%%%%%%%%%%%%%%%%%%%%%%%%%%%%%%%%%%%%%%%%%%
30643A%%%%%%%%%%%%%%%%%%%%%%%%%%%%%%%%%%%%%%%%%%%%%%%%%%%%%%%%%%%%%%%%%%%%%%%%%%
30568A%%%%%%%%%%%%%%%%%%%%%%%%%%%%%%%%%%%%%%%%%%%%%%%%%%%%%%%%%%%%%%%%%%%%%%%%%%
30492A%%%%%%%%%%%%%%%%%%%%%%%%%%%%%%%%%%%%%%%%%%%%%%%%%%%%%%%%%%%%%%%%%%%%%%%%%%
30417A%%%%%%%%%%%%%%%%%%%%%%%%%%%%%%%%%%%%%%%%%%%%%%%%%%%%%%%%%%%%%%%%%%%%%%%%%%
30342A%%%%%%%%%%%%%%%%%%%%%%%%%%%%%%%%%%%%%%%%%%%%%%%%%%%%%%%%%%%%%%%%%%%%%%%%%%
30267A%%%%%%%%%%%%%%%%%%%%%%%%%%%%%%%%%%%%%%%%%%%%%%%%%%%%%%%%%%%%%%%%%%%%%%%%%%
30191A%%%%%%%%%%%%%%%%%%%%%%%%%%%%%%%%%%%%%%%%%%%%%%%%%%%%%%%%%%%%%%%%%%%%%%%%%%
30116A%%%%%%%%%%%%%%%%%%%%%%%%%%%%%%%%%%%%%%%%%%%%%%%%%%%%%%%%%%%%%%%%%%%%%%%%%%
30041A%%%%%%%%%%%%%%%%%%%%%%%%%%%%%%%%%%%%%%%%%%%%%%%%%%%%%%%%%%%%%%%%%%%%%%%%%%
29966A%%%%%%%%%%%%%%%%%%%%%%%%%%%%%%%%%%%%%%%%%%%%%%%%%%%%%%%%%%%%%%%%%%%%%%%%%%
29890A%%%%%%%%%%%%%%%%%%%%%%%%%%%%%%%%%%%%%%%%%%%%%%%%%%%%%%%%%%%%%%%%%%%%%%%%%%
29815A%%%%%%%%%%%%%%%%%%%%%%%%%%%%%%%%%%%%%%%%%%%%%%%%%%%%%%%%%%%%%%%%%%%%%%%%%%
29740A%%%%%%%%%%%%%%%%%%%%%%%%%%%%%%%%%%%%%%%%%%%%%%%%%%%%%%%%%%%%%%%%%%%%%%%%%%
29664A%%%%%%%%%%%%%%%%%%%%%%%%%%%%%%%%%%%%%%%%%%%%%%%%%%%%%%%%%%%%%%%%%%%%%%%%%%
29589A%%%%%%%%%%%%%%%%%%%%%%%%%%%%%%%%%%%%%%%%%%%%%%%%%%%%%%%%%%%%%%%%%%%%%%%%%%
29514A%%%%%%%%%%%%%%%%%%%%%%%%%%%%%%%%%%%%%%%%%%%%%%%%%%%%%%%%%%%%%%%%%%%%%%%%%%
29439A%%%%%%%%%%%%%%%%%%%%%%%%%%%%%%%%%%%%%%%%%%%%%%%%%%%%%%%%%%%%%%%%%%%%%%%%%%
29363A%%%%%%%%%%%%%%%%%%%%%%%%%%%%%%%%%%%%%%%%%%%%%%%%%%%%%%%%%%%%%%%%%%%%%%%%%%
29288A%%%%%%%%%%%%%%%%%%%%%%%%%%%%%%%%%%%%%%%%%%%%%%%%%%%%%%%%%%%%%%%%%%%%%%%%%%
29213A%%%%%%%%%%%%%%%%%%%%%%%%%%%%%%%%%%%%%%%%%%%%%%%%%%%%%%%%%%%%%%%%%%%%%%%%%%
29137A%%%%%%%%%%%%%%%%%%%%%%%%%%%%%%%%%%%%%%%%%%%%%%%%%%%%%%%%%%%%%%%%%%%%%%%%%%
29062A%%%%%%%%%%%%%%%%%%%%%%%%%%%%%%%%%%%%%%%%%%%%%%%%%%%%%%%%%%%%%%%%%%%%%%%%%%
28987A%%%%%%%%%%%%%%%%%%%%%%%%%%%%%%%%%%%%%%%%%%%%%%%%%%%%%%%%%%%%%%%%%%%%%%%%%%
28912A%%%%%%%%%%%%%%%%%%%%%%%%%%%%%%%%%%%%%%%%%%%%%%%%%%%%%%%%%%%%%%%%%%%%%%%%%%
28836A%%%%%%%%%%%%%%%%%%%%%%%%%%%%%%%%%%%%%%%%%%%%%%%%%%%%%%%%%%%%%%%%%%%%%%%%%%
28761A%%%%%%%%%%%%%%%%%%%%%%%%%%%%%%%%%%%%%%%%%%%%%%%%%%%%%%%%%%%%%%%%%%%%%%%%%%
28686A%%%%%%%%%%%%%%%%%%%%%%%%%%%%%%%%%%%%%%%%%%%%%%%%%%%%%%%%%%%%%%%%%%%%%%%%%%
28611A%%%%%%%%%%%%%%%%%%%%%%%%%%%%%%%%%%%%%%%%%%%%%%%%%%%%%%%%%%%%%%%%%%%%%%%%%%
28535A%%%%%%%%%%%%%%%%%%%%%%%%%%%%%%%%%%%%%%%%%%%%%%%%%%%%%%%%%%%%%%%%%%%%%%%%%%
28460A%%%%%%%%%%%%%%%%%%%%%%%%%%%%%%%%%%%%%%%%%%%%%%%%%%%%%%%%%%%%%%%%%%%%%%%%%%
28385A%%%%%%%%%%%%%%%%%%%%%%%%%%%%%%%%%%%%%%%%%%%%%%%%%%%%%%%%%%%%%%%%%%%%%%%%%%
28309A%%%%%%%%%%%%%%%%%%%%%%%%%%%%%%%%%%%%%%%%%%%%%%%%%%%%%%%%%%%%%%%%%%%%%%%%%%
28234A%%%%%%%%%%%%%%%%%%%%%%%%%%%%%%%%%%%%%%%%%%%%%%%%%%%%%%%%%%%%%%%%%%%%%%%%%%
28159A%%%%%%%%%%%%%%%%%%%%%%%%%%%%%%%%%%%%%%%%%%%%%%%%%%%%%%%%%%%%%%%%%%%%%%%%%%
28084A%%%%%%%%%%%%%%%%%%%%%%%%%%%%%%%%%%%%%%%%%%%%%%%%%%%%%%%%%%%%%%%%%%%%%%%%%%
28008A%%%%%%%%%%%%%%%%%%%%%%%%%%%%%%%%%%%%%%%%%%%%%%%%%%%%%%%%%%%%%%%%%%%%%%%%%%
27933A%%%%%%%%%%%%%%%%%%%%%%%%%%%%%%%%%%%%%%%%%%%%%%%%%%%%%%%%%%%%%%%%%%%%%%%%%%
27858A%%%%%%%%%%%%%%%%%%%%%%%%%%%%%%%%%%%%%%%%%%%%%%%%%%%%%%%%%%%%%%%%%%%%%%%%%%
27782A%%%%%%%%%J%%%%%%%%%%%%%%%%%%%%%%%%%%%%%%%%%%%%%%%%%%%%%%%%%%%%%%%%%%%%%%%%
27707B%%%%%%%%%%%%%%%%%%%%%%%%%%%%%%%%%%%%%%%%%%%%%%%%%%%%%%%%%%%%%%%%%%%%%%%%%%
27632B%%%%%%%%%%%%%%%%%%%%%%%%%%%%%%%%%%%%%%%%%%%%%%%%%%%%%%%%%%%%%%%%%%%%%%%%%%
27557B%%%%%%%%%%%%%%%%%%%%%%%%%%%%%%%%%%%%%%%%%%%%%%%%%%%%%%%%%%%%%%%%%%%%%%%%%%
27481B%%%%%%%%%%%%%%%%%%%%%%%%%%%%%%%%%%%%%%%%%%%%%%%%%%%%%%%%%%%%%%%%%%%%%%%%%%
27406B%%%%%%%%%%%%%%%%%%%%%%%%%%%%%%%%%%%%%%%%%%%%%%%%%%%%%%%%%%%%%%%%%%%%%%%%%%
27331B%%%%%%%%%%%%%%%%%%%%%%%%%%%%%%%%%%%%%%%%%%%%%%%%%%%%%%%%%%%%%%%%%%%%%%%%%%
27256B%%%%%%%%%%%%%%%%%%%%%%%%%%%%%%%%%%%%%%%%%%%%%%%%%%%%%%%%%%%%%%%%%%%%%%%%%%
27180B%%%%%%%%%%%%%%%%%%%%%%%%%%%%%%%%%%%%%%%%%%%%%%%%%%%%%%%%%%%%%%%%%%%%%%%%%%
27105B%%%%%%%%%%%%%%%%%%%%%%%%%%%%%%%%%%%%%%%%%%%%%%%%%%%%%%%%%%%%%%%%%%%%%%%%%%
27030B%%%%%%%%%%%%%%%%%%%%%%%%%%%%%%%%%%%%%%%%%%%%%%%%%%%%%%%%%%%%%%%%%%%%%%%%%%
26954B%%%%%%%%%%%%%%%%%%%%%%%%%%%%%%%%%%%%%%%%%%%%%%%%%%%%%%%%%%%%%%%%%%%%%%%%%%
26879B%%%%%%%%%%%%%%%%%%%%%%%%%%%%%%%%%%%%%%%%%%%%%%%%%%%%%%%%%%%%%%%%%%%%%%%%%%
26804B%%%%%%%%%%%%%%%%%%%%%%%%%%%%%%%%%%%%%%%%%%%%%%%%%%%%%%%%%%%%%%%%%%%%%%%%%%
26729B%%%%%%%%%%%%%%%%%%%%%%%%%%%%%%%%%%%%%%%%%%%%%%%%%%%%%%%%%%%%%%%%%%%%%%%%%%
26653B%%%%%%%%%%%%%%%%%%%%%%%%%%%%%%%%%%%%%%%%%%%%%%%%%%%%%%%%%%%%%%%%%%%%%%%%%%
26578B%%%%%%%%%%%%%%%%%%%%%%%%%%%%%%%%%%%%%%%%%%%%%%%%%%%%%%%%%%%%%%%%%%%%%%%%%%
26503B%%%%%%%%%%%%%%%%%%%%%%%%%%%%%%%%%%%%%%%%%%%%%%%%%%%%%%%%%%%%%%%%%%%%%%%%%%
26427B%%%%%%%%%%%%%%%%%%%%%%%%%%%%%%%%%%%%%%%%%%%%%%%%%%%%%%%%%%%%%%%%%%%%%%%%%%
26352B%%%%%%%%%%%%%%%%%%%%%%%%%%%%%%%%%%%%%%%%%%%%%%%%%%%%%%%%%%%%%%%%%%%%%%%%%%
26277B%%%%%%%%%%%%%%%%%%%%%%%%%%%%%%%%%%%%%%%%%%%%%%%%%%%%%%%%%%%%%%%%%%%%%%%%%%
26202B%%%%%%%%%%%%%%%%%%%%%%%%%%%%%%%%%%%%%%%%%%%%%%%%%%%%%%%%%%%%%%%%%%%%%%%%%%
26126B%%%%%%%%%%%%%%%%%%%%%%%%%%%%%%%%%%%%%%%%%%%%%%%%%%%%%%%%%%%%%%%%%%%%%%%%%%
26051B%%%%%%%%%%%%%%%%%%%%%%%%%%%%%%%%%%%%%%%%%%%%%%%%%%%%%%%%%%%%%%%%%%%%%%%%%%
25976B%%%%%%%%%%%%%%%%%J%%%%%%%%%%%%%%%%%%%%%%%%%%%%%%%%%%%%%%%%%%%%%%%%%%%%%%%%
25901C%%%%%%%%%%%%%%%%%%%%%%%%%%%%%%%%%%%%%%%%%%%%%%%%%%%%%%%%%%%%%%%%%%%%%%%%%%
25825C%%%%%%%%%%%%%%%%%%%%%%%%%%%%%%%%%%%%%%%%%%%%%%%%%%%%%%%%%%%%%%%%%%%%%%%%%%
25750C%%%%%%%%%%%%%%%%%%%%%%%%%%%%%%%%%%%%%%%%%%%%%%%%%%%%%%%%%%%%%%%%%%%%%%%%%%
25675C%%%%%%%%%%%%%%%%%%%%%%%%%%%%%%%%%%%%%%%%%%%%%%%%%%%%%%%%%%%%%%%%%%%%%%%%%%
25599C%%%%%%%%%%%%%%%%%%%%%%%%%%%%%%%%%%%%%%%%%%%%%%%%%%%%%%%%%%%%%%%%%%%%%%%%%%
25524C%%%%%%%%%%%%%%%%%%%%%%%%%%%%%%%%%%%%%%%%%%%%%%%%%%%%%%%%%%%%%%%%%%%%%%%%%%
25449C%%%%%%%%%%%%%%%%%%%%%%%%%%%%%%%%%%%%%%%%%%%%%%%%%%%%%%%%%%%%%%%%%%%%%%%%%%
25374C%%%%%%%%%%%%%%%%%%%%%%%%%%%%%%%%%%%%%%%%%%%%%%%%%%%%%%%%%%%%%%%%%%%%%%%%%%
25298C%%%%%%%%%%%%%%%%%%%%%%%%%%%%%%%%%%%%%%%%%%%%%%%%%%%%%%%%%%%%%%%%%%%%%%%%%%
25223C%%%%%%%%%%%%%%%%%%%%%%%%%%%%%%%%%%%%%%%%%%%%%%%%%%%%%%%%%%%%%%%%%%%%%%%%%%
25148C%%%%%%%%%%J%%%%%%%%%%%%%%%%%%%%%%%%%%%%%%%%%%%%%%%%%%%%%%%%%%%%%%%%%%%%%%%
25072D%%%%%%%%%%%%%%%%%%%%%%%%%%%%%%%%%%%%%%%%%%%%%%%%%%%%%%%%%%%%%%%%%%%%%%%%%%
24997D%%%%%%%%%%%%%%%%%%%%%%%%%%%%%%%%%%%%%%%%%%%%%%%%%%%%%%%%%%%%%%%%%%%%%%%%%%
24922D%%%%%%%%%%%%%%%%%%%%%%%%%%%%%%%%%%%%%%%%%%%%%%%%%%%%%%%%%%%%%%%%%%%%%%%%%%
24847D%%%%%%%%%%%%%%%%%%%%%%%%%%%%%%%%%%%%%%%%%%%%%%%%%%%%%%%%%%%%%%%%%%%%%%%%%%
24771D%%%%%%%%%%%%%%%%%%%%%%%%%%%%%%%%%%%%%%%%%%%%%%%%%%%%%%%%%%%%%%%%%%%%%%%%%%
24696D%%%%%%%%%%%%%%%%%%%%%%%%%%J%%%%%%%%%%%%%%%%%%%%%%%%%%%%%%%%%%%%%%%%%%%%%%%
24621E%%%%%%%%%%%%%%%%%%%%%%%%%%%%%%%%%%%%%%%%%%%%%%%%%%%%%%%%%%%%%%%%%%%%%%%%%%
24546E%%%%%%%%%%%%%%%%%%%%%%%%%%%%%%%%%%%%%%%%%%%%%%%%%%%%%%%%%%%%%%%%%%%%%%%%%%
24470E%%%%%%%%%%%%%%%%%%%%%%%%%%%%%%%%%%%%%%%%%%%%%%%%%%%%%%%%%%%%%%%%%%%%%%%%%%
24395E%%%%%%%%%%%%%%%%%%%%%%%%%J%%%%%%%%%%%%%%%%%%%%%%%%%%%%%%%%%%%%%%%%%%%%%%%%
24320F%%%%%%%%%%%%%%%%%%%%%%%%%%%%%%%%%%%%%%%%%%%%%%%%%%%%%%%%%%%%%%%%%%%%%%%%%%
24244F%%%%%%%%%%%%%%%%%%%%%%%%%%%%%%%%%%%%%%%%%%%%%%%%%%%%%%%%%%%%%%%%%%%%%%%%%%
24169F%%%%%%%J%%%%%%%%%%%%%%%%%%%%%%%%%%%%%%%%%%%%%%%%%%%%%%%%%%%%%%%%%%%%%%%%%%
24094G%%%%%%%%%%%%%%%%%%%%%%%%%%%%%%%%%%%%%%%%%%%%%%%%%%%%%%%%%%%%%%%%%%%%%%%%%%
24019G%%%%%%%J%%%%%%%%%%%%%%%%%%%%%%%%%%%%%%%%%%%%%%%%%%%%%%%%%%%%%%%%%%%%%%%%%%
23943H%%%%%%%%%%%%%%%%%%%%%%%%%%%%%%%%%%%%%%%%%%%%%J%%%%%%%%%%%%%%%%%%%%%%%%%%%%
23868I%%%%%%%%%%%%%%%%%%%%%%%%%%%%%%%%%%%%%%%%%%%%%%%%%%%%%%%%%%%J%%%%%%%%%%%%%%
23793A0%%%%%%%%%%%%%%%%%%%%%%%%%%%%%%%%%%%%%%%%%%%%%%%%%%%%%%%J%%%%%%%%%%%%%%%%%
23718A1%%%%%%%%%%%%%%%%%%%%%%%%%%%%%%%%%%%%%%%J%%%%%%%%%%%%%%%%%%%%%%%%%%%%%%%%%
23644A2%%%%%%%%%%%%%%J%%%%%%%%%%%%%%%%%%%%%%%%%%%%%%%%%%%%%%%%J%%%%%%%%%%%%%%%%%
23570A4%%%%%%%%%%%%%%%%%J%%%%%%%%%%%%%%%%%%%%%%%%%%%%%J%%%%%%%%%%%%%%%%%%%%%%%%%
23496A6J%%%%%%%%%%%%%%%%%%%%%%J%%%%%%%%%%%%%%%%%%%%J%%%%%%%%%%%%%%%%%J%%%%%%%%%%
23421B0%%%%%%J%%%%%%%%%%%%%%J%%%%%%%%%%%%%J%%%%%%%%%%%%J%%%%%%%%%%J%%%%%%%%%%J%%
23347B6%%%%%%%J%%%%%%%%J%%%%%%%J%%%%%%%J%%%%%%%J%%%%%%J%%%%%J%%%%%J%%%%%J%%%%%J%
23273C6%%%J%%%%J%%%%J%%%J%%%J%%%J%%%J%%%J%%%J%%J%%J%%%J%%J%%J%J%%J%%J%J%%J%J%J%%
23199E7J%J%J%J%J%J%JJ%J%JJ%J%JJ%JJ%JJJ%JJJJ%JJJJJJJ%JJJKJJJJJJJKJJJKJJKJKJKJKKJK
23124A24KKJKKKKKKLKKLKLKLKLLLLLLMLMLMMMMMMNNMNNONOOOOPOPQPQQRRRRJ0J1J0J1J2J2J3J3
23059D57J4J5J5J6J7J7J8J9K0K1K3K3K4K6K6K9K9L1L3L5L6L8M0M2M4M7M8N1N4N6N8O1O3O6O7P0
23023A749P2P2P5P4P5P4P3P0O8O3N9N3M5L8L0K0J1Jqj8k8l6m4n1n7o2o7o9p3p3p4p5p4p3p1p0
22986A699o8o5o4o1n8n6n4n1m9m6m5m2m0l8l6l5l3l1k9k8k7k6k4k3k2k1k0j9j8j7j6j6j5j4j4
22950D78j3j2j2j2j1j0j0j0rrqqqqppopooonnnnnmnmmmmlmllmllkllklkkkkkkkkkjkkjjkjjjkj
22885A74jjj%jjj%jj%j%j%j%%%j%%%%%%%%%%J%%J%%J%J%JJ%JJ%JJJJJJJKJJJKJKJKJKKKKKKKKK
22812B09LKLKLLLLLLLMLMMMMMNMNNNNONOOOPPPPQQQRRRJ0J0J0J1J2J2J3J3J3J5J5J5J7J7J8J9
22756F24K0K1K1K3K4K6K6K8K9L1L3L4L6L7M0M2M3M6M9N0N3N6N8O0O3O5O7P0P1P3P4P4P5P5P3P1
22720B361O9O5O0N4M7M1L1K3J3Moj6k5l4m2m9n5o1o6o8p2p3p3p4p4p3p1p0o8o5o4o1n8n6n4n1
22683A289m9m7m4m2m0l8l6l4l2l1k9k8k6k5k4k3k1k0j9j9j7j6j6j5j4j3j3j2j1j1j0j0rrrpqpp
22643D48oononmnmlmllklkkkjjjj%j%%J%JJKJKKKLLLLMMMMNNNOOPPPQQQRJ0J0J0J2J1J3J3J3J5
22579F06J5J6J7J8J8K0K1K2K3K4K5K7K9L0L1L4L5L7L9M0M4M5M7N0N3N4N8N9O2O5O7O8P1P2P3P4
22543B089P4P4P2P0O8O3N8N3M6L8L0K1J1Kqj8k7l5m4n1n7o2o7p0p2p4p5p5p4p4p2p0o9o6o4o1
22506A484o0n6n5n2m9m7m5m3m1l8l7l5l3l2l0k9k7k6k5k3k3k1k0k0j8j8j7j6j5j5j4j3j3j2j2
22470D54j1j1j0j0j0rrqqqqppopooononnmnnmmmmmlmllllllllklkklkkkkkjkkkjkjjkjjjkjjjj
22402A76j%jjj%jj%j%j%%j%%%j%%%%%%%%J%%%J%%J%J%JJ%JJJ%JJJJKJJJKJJKKJKKJKKKLKKLKLK
22329B21LLLLLLMLMMMMMNNMNONNOOPOPPPQQQRRRJ0J0J1J1J2J2J3J3J4J5J5J6J7J8J8K0K0K1K3
22276F87K3K5K6K8K8L1L2L3L6L7L9M1M3M5M8N0N2N5N7O0O2O4O7O9P0P3P3P4P5P4P3P1O8O5O0N4
22239B568M8M1L2K3J4Moj5k5l3m2m9n5o1o6o9p2p3p5p4p5p3p3p0o9o7o4o2o0n7n5n2n0m8m5m3
22203A052m1l9l8l5l4l2l0k9k7k7k5k3k3k2k0k0j8j8j7j6j6j5j4j4j3j2j2j2j1j0j0j0rrrqqqp
22163C11pppooooonnnnnmnmmmmmlmlmlllllllklklklkkkkkkkkkkjkkkjkjkjkjjkjjkjjjjjkjjj
22090A02jjjjj%jjjjjj%jjjj%jj%jj%jj%jj%j%j%j%jj%j%j%%j%j%j%j%%j%j%%j%%j%%j%j%%%j%
22017F1%j%%j%%%j%%%j%%%j%%%j%%%j%%%%j%%%%j%%%%j%%%%%j%%%%%j%%%%%%j%%%%%%%j%%%%%%
21942D7%j%%%%%%%%j%%%%%%%%%%j%%%%%%%%%%%j%%%%%%%%%%%%%j%%%%%%%%%%%%%%%%%%j%%%%%%
21868D1%%%%%%%%%%%%%%%%%%%j%%%%%%%%%%%%%%%%%%%%%%%%%%%%%%%%%%%%%%%%%%%%%%%%%%%%%
21794D0%%%%%%%%%%%%%%%%%%%%%%%%%%%%%%%%%%%%%%%%%%%%%%%%%%%%%%%%%%J%%%%%%%%%%%%%%
21720D1%%%%%%%%%%%%%%%%%J%%%%%%%%%%%%%%%%%%%%%%J%%%%%%%%%%%%%%%%%%J%%%%%%%%%%%%%
21645D4%%J%%%%%%%%%%%%%%J%%%%%%%%%%%%J%%%%%%%%%%%J%%%%%%%%%%J%%%%%%%%%J%%%%%%%%%
21571E0J%%%%%%%%J%%%%%%%%J%%%%%%%J%%%%%%J%%%%%%%J%%%%%%J%%%%%J%%%%%J%%%%%%J%%%%J
21497F1%%%%%J%%%%J%%%%J%%%%J%%%%J%%%%J%%%J%%%J%%%J%%%J%%%J%%%J%%%J%%J%%%J%%J%%J%
21423G8%J%%J%%J%%J%%J%%J%J%%J%J%%J%J%%J%J%J%J%%J%J%J%J%J%JJ%J%J%JJ%J%JJ%J%JJ%JJ%
21348A12JJJ%JJJ%JJJJ%JJJJJJJ%JJJJJJJJKJJJJJJKJJJKJJKJJKJKJKJKKJKKKJKKKKKKKKLKKLK
21275B07KLLKLLLLLLLLMLMMLMMNMMNNMNONONOOPOPQPQQQRRRJ0J0J1J1J2J2J2J4J3J5J5J6J7J7
21217F04J9J9K0K1K2K3K4K6K7K7K9L1L1L3L4L5L7L7L9L9M0M0M0L9L9L8L7L4L2K9K6K1J8J3QLjo
21178A627j1j4j9k2k5k7k9l1l1l2l3l2l2l1l0k9k8k7k6k4k3k1k0j9j7j6j5j3j2j1j0qqoomllj%
21138H78%JKMMMOPPQRJ0J1J2J3J4J5J6J6J8J9K0K2K2K4K5K7K8L0L1L3L4L7L8M1M2M5M7N0N2N5
21096A777N7O1O4O7P0P4P7Q1Q5Q9R3R7J01J05J09J12J17J20J23J26J30J31J33J35J36J37J37
21068D544J37J37J36J34J33J30J28J24J20J14J07J00R0P9O7N3L7K1Lj5l3n2p0q7j04j17j30j41
21040E645j50j57j63j65j68j68j67j65j62j58j54j49j44j39j34j28j22j17j12j06j02r7r1q8q3
21015B256p9p5p1o8o4o1n9n5n2n0m8m5m3m1l9l8l5l4l2l0l0k7k7k5k4k3k2k1k0j9j9j7j6j6j5
20979I16j4j4j3j2j2j1j0j0rrrpqpoonommmlllkkjj%%%JJKKLLMMMONPOQQRRJ0J1J1J3J3J4J5J6
20922I06J7J8J9K1K1K3K4K5K7K8L0L1L2L5L5L7L9L9M2M2M3M4M4M4M5M3M3M1L9L7L4L1K8K3K0J5
20885B065J1QL%koprj0j0j0j0rqonk%JMOQRJ2J2J3J3J4J3J2J0QOLjnqj2j7k0k4k8l0l3l5l7l8
20838A849l9l9l9l9l8l7l6l5l3l1l0k8k6k5k2k1j9j7j5j3j2j0qonlkJKLOPQJ1J2J4J6J7K0K1K3
20796A382K5K7K8L0L2L4L5L7L8L8M0M0M0M0L9L8L6L4L2K9K5K2J8J4J0OKjnprj0j2j3j2j3j1j1q
20756B059qnljJLNPRJ0J0J2J1J1J0RPMJjoj0j3j8k2k5l0l2l5l8m0m1m2m3m3m3m3m2m1m0l8l8l6
20712A392l4l3l1l0k8k7k6k4k2k2k0j8j8j7j5j5j3j2j2j1j0rqqopnnmmlkkkj%%JJJKLLLMNNNOO
20662I33PPQQRRJ0J0J1J1J3J2J3J4J5J5J6J6J8J8J9J9K1K1K3K3K5K5K7K7K9L1L1L3L4L6L8L9M1
20622A715M3M5M7N0N1N4N7N9O2O5O9P1P6P9Q3Q7R1R6J01J05J11J16J22J28J34J40J45J53J58
20592D313J65J70J77J81J87J91J93J97J97J97J95J92J87J80J71J60J48J35J19J05Q8P2N7M2K8
20567H047J6Omj2j7k1k3k5k5k3k2j9j7j2rn%LQJ2J5J8K1K1K2K0J7J3Okj2k4l7n2o7q2r8j14j28
20527G395j42j55j64j74j81j87j89j92j92j91j89j85j82j76j72j65j60j54j47j41j34j29j22
20504C572j16j11j05j00r5r0q5q0p6p2o9o4o1n7n4n0m8m4m2l9l7l3l2k9k6k5k2j9j8j5j4j1rpn
20468A812l%JLOPJ0J1J3J5J7J9K0K1K3K3K4K4K4K4K2K1J9J6J3J0OKkqj1j6k1k5k8l1l5l7l8m0
20428A911m1m2m2m1m2m0m0l8l8l6l4l4l2l0k9k8k6k5k4k2k1k0j9j8j7j5j5j4j3j2j2j0j0rrqpo
20389I92oonmmllkkjj%%%JKKKLLLMNNNOPOQPRRRJ0J0J1J2J2J3J4J4J5J6J6J8J8J9K0K1K1K3K4
20336A358K5K7K7K9L0L2L3L5L7L8M0M3M4M6M9N2N3N7O0O2O6O9P3P6Q0Q5Q8R3R8J02J08J12J17
20302C344J23J27J32J38J42J46J49J53J56J56J57J56J53J49J43J35J26J13J00Q5O8N0L2J2pk5
20276F213m4o0p5q9j00j10j18j23j27j30j30j30j27j25j21j17j12j06j01r5q9q4p7p0o5n9n3m7
20248C529m2l5l0k5j9j4qlKPJ3J8K4K9L4M0M6N1N7O3O9P5Q1Q7R4J00J06J12J18J24J29J35J38
20214E105J43J45J47J47J46J44J40J34J25J16J04R1P5N8M1K3Mj4l2m9o4p8q9j00j08j14j18j20
20186F002j21j20j18j15j11j06j00r4q7q1p3o6n9n1m3l6k8k1j2nKJ0J9K6L4M2N0N8O7P6Q5R3
20153E117J03J13J22J32J43J53J64J75J85J97K08K19K29K40K49K58K66K72K77K80K79K78K71
20130I930K63K50K34K13J89J62J29R6N9K1j7n6r4j30j63j93k21k43k63k78k90k98l03l05l04
20104H388l02k96k91k83k75k66k56k46k37k26k16k07j97j88j79j70j62j54j47j39j32j26j19
20081C574j14j08j03r7r3q9q4q0p6p3o9o6o2o0n7n5n2m9m7m5m3m1l9l8l5l4l3l1k9k8k7k5k4k3
20046A645k2k1j9j9j7j7j5j5j4j3j2j1j0rrqponnmlkkj%JKKMMNOPQQJ0J1J1J3J4J5J7J7J9K0K2
19998A595K3K4K7K7L0L2L3L6L7M0M3M5M7N0N4N6O0O3O6P0P5P8Q2Q8R1R6J02J06J11J16J21J26
19966C650J31J35J39J42J45J47J48J48J45J43J38J31J22J11R9Q5O8N2L2J4ok6m4o2p9r3j07j19
19937E389j27j36j40j45j47j48j47j46j43j41j36j32j28j22j18j13j08j02r8r3q9q4p9p5p2o7
19911B353o4o0n7n4n1m7m5m3m0l8l5l3l1l0k7k5k4k3k0j9j8j6j5j4j2j1j0rppnmmkj%JKLMNOPQ
19866A488RJ0J2J2J4J4J6J7J9J9K1K3K3K6K6K9L0L2L3L5L8L9M2M3M6M9N1N4N7O0O3O6P0P3P8Q1
19829B818Q6R1R6J00J06J12J18J24J31J38J45J54J61J69J79J87J97K06K16K26K36K45K55K64
19805F760K73K80K86K92K95K96K94K91K83K73K58K40K18J92J62J30R4N6J8k1o0r8j33j66j95
19780A0318k22k44k62k76k88k94k99l00k99k95k91k84k77k69k59k50k40k30k21k11k01j92j83
19756D431j74j66j58j50j43j36j29j23j17j11j06j01r6r1q8q3p9p6p2o9o6o3o0n8n5n3n0m9m7
19727A662m4m3m1m0l8l6l5l4l3l1l0k9k9k7k6k5k4k4k3k2k1k0k0k0j8j8j8j7j6j6j6j5j5j4j3
19691G71j4j3j2j3j2j1j2j1j0j1j0j0j0rrrrqrqqqppqppopopooonoonnonnmnnnmmnmmmmmmmmlm
19631C51lmlmllllllllllllklkllkklklkkkklkkkkkkkkkjkkkkjkkjkkjkjkjkjkjkjjkjjkjjkjj
19558A99jjkjjjjjjkjjjjjjjjjjjjj%jjjjjjj%jjjj%jjjj%jjj%jj%jj%jj%jj%jj%j%jj%j%j%jj
19485A39%j%j%j%j%j%j%j%j%%j%j%j%%j%j%j%%j%%j%j%%j%%j%%j%%j%%j%%j%%%j%%j%%%j%%%j%
19411A12%j%%%%j%%%j%%%%j%%%%j%%%%j%%%%%j%%%%%j%%%%%%j%%%%%%%j%%%%%%%%%j%%%%%%%%%
19338A01%%%%j%%%%%%%%%%%%%%%%%%%%%%%%%%%%%%%%%%%%%%%%%%%%%%%%J%%%%%%%%%%%J%%%%%%
19265A02%%%J%%%%%%J%%%%%J%%%%%J%%%%J%%%%J%%%J%%%J%%%J%%%J%%J%%J%%J%%J%%J%%J%J%%J
19192A20%J%%J%J%J%J%J%J%J%J%J%JJ%J%JJ%J%JJ%JJ%JJJ%JJJ%JJJJJ%JJJJJJJJJJJJJJJJJJJJ
19118A71KJJJKJJJKJJKJKJKJKJKJKKJKKKJKKKKKKKKKKKLKKLKKLKLLKLLLKLLLLMLLMLLMMLMMMMM
19045C35MNMNMNNNNNNONONOOPOOPPPPQPQQQQRRRRJ0RJ1J0J1J1J1J2J2J2J3J3J3J4J5J4J6J5J7
18991G90J6J8J8J8J9K0K1K1K2K3K3K5K5K6K7K9K9L1L1L3L4L6L7L9M0M2M4M5M8M9N2N4N7N9O2O5
18955B028O8P1P5P8Q2Q6R0R5J00J05J10J15J22J28J35J41J49J56J65J73J81J91K00K09K19K29
18928E501K38K49K58K66K75K83K89K94K98K98K97K93K86K75K60K42K20J94J64J32R6N8K0k0n8
18903A0708r6j31j64j94k20k42k60k75k86k93k97k98k98k94k89k83k75k67k58k48k39k29k19
18879E053k10k00j91j81j73j65j56j49j42j35j28j22j15j11j04j00r5r1q6q2p8p5p1o8o5o2o0
18852A838n6n5n2m9m8m6m3m2m1l8l8l5l5l3l1l1k9k9k7k6k6k4k4k3k2k1k1k0j9j9j8j7j7j6j6
18816G51j5j5j5j4j3j4j2j3j2j2j1j1j1j0j1rj0rj0rqrqqqpqppppopooooonononnnmnnmmnmmmm
18760C08mmmlmlmlmllllllllllkllklklkklkkkklkkkkkkkjkkkkjkkjkkjkjkjkjkjjkjjkjjkjjj
18687A49jkjjjjjjjjjjjjjjjjjjjjjjjj%jjjj%jjjj%jjj%jj%jj%jj%jj%jj%j%jj%j%j%j%jj%j%
18614I2j%j%j%j%j%%j%j%j%j%%j%j%j%%j%%j%j%%j%%j%%j%j%%j%%j%%%j%%j%%j%%%j%%j%%%j%%
18540F5j%%%j%%%j%%%j%%%%j%%%j%%%%j%%%j%%%%j%%%%j%%%%j%%%%%j%%%%j%%%%%j%%%%%j%%%%
18465E0%%j%%%%%j%%%%%%j%%%%%%%j%%%%%%j%%%%%%%j%%%%%%%%j%%%%%%%%j%%%%%%%%j%%%%%%%
18391D1%%j%%%%%%%%%%j%%%%%%%%%%j%%%%%%%%%%%j%%%%%%%%%%%%j%%%%%%%%%%%%%j%%%%%%%%%
18317C5%%%%%j%%%%%%%%%%%%%%%j%%%%%%%%%%%%%%%%j%%%%%%%%%%%%%%%%%%%j%%%%%%%%%%%%%%
18243C1%%%%%%j%%%%%%%%%%%%%%%%%%%%%%%j%%%%%%%%%%%%%%%%%%%%%%%%%j%%%%%%%%%%%%%%%%
18168B8%%%%%%%%%%%%%%j%%%%%%%%%%%%%%%%%%%%%%%%%%%%%%%%%%%%j%%%%%%%%%%%%%%%%%%%%%
18094B6%%%%%%%%%%%%%%%%%%%%%%%j%%%%%%%%%%%%%%%%%%%%%%%%%%%%%%%%%%%%%%%%%%%%%%%%%
18020B5%%%%%%%%%%j%%%%%%%%%%%%%%%%%%%%%%%%%%%%%%%%%%%%%%%%%%%%%%%%%%%%%%%%%%%%%%
17945B4%%%%%%%%%%%%%%%%%%%%%%%%%%%%%%%%%%%%%%%%%%%%%%%%%j%%%%%%%%%%%%%%%%%%%%%%%
17871B3%%%%%%%%%%%%%%%%%%%%%%%%%%%%%%%%%%%%%%%%%%%%%%%%%%%%%%%%%%%%%%%%%%%%%%%%%
17797B3%%%%%%%%%%%%%%%%J%%%%%%%%%%%%%%%%%%%%%%%%%%%%%%%%%%%%%%%%%%%%%%%%%%%%%%%%
17723B4%%%%%%%%%%%%%%%%%%%%%%%%%%%%%%%%%%%%%%%%%%%%%%%%%%%%%J%%%%%%%%%%%%%%%%%%%
17648B5%%%%%%%%%%%%%%%%%%%%%%%%%%%%%%%%%%%%%J%%%%%%%%%%%%%%%%%%%%%%%%%%%%%%%%%%%
17574B6%%%%%%%J%%%%%%%%%%%%%%%%%%%%%%%%%%%%%%%%%J%%%%%%%%%%%%%%%%%%%%%%%%%%%%J%%
17500B9%%%%%%%%%%%%%%%%%%%%%%J%%%%%%%%%%%%%%%%%%%%J%%%%%%%%%%%%%%%%%%%J%%%%%%%%%
17426C2%%%%%%%J%%%%%%%%%%%%%%%J%%%%%%%%%%%%%%J%%%%%%%%%%%%J%%%%%%%%%%%%J%%%%%%%%
17351C7%%J%%%%%%%%%%J%%%%%%%%%J%%%%%%%%J%%%%%%%%J%%%%%%%J%%%%%%%J%%%%%%J%%%%%%J%
17277D6%%%%%J%%%%%J%%%%%J%%%%%J%%%%J%%%%J%%%%J%%%%J%%%%J%%%J%%%J%%%J%%%J%%%J%%J%
17203F1%%J%%J%%J%%%J%%J%%J%J%%J%%J%J%%J%J%%J%J%J%J%J%%J%JJ%J%J%J%JJ%J%JJ%JJ%JJ%J
17129I4J%JJJ%JJJJJ%JJJJJJJJJJJJJJJJKJJJJKJJKJKJKJKJKJKKKJKKKKKKKLKKKLKLLKLLLLLLL
17054B08MLMLMMMMMNMNNNNONOOOPPPPPQQRQJ0RJ0J0J1J2J1J3J3J3J4J5J5J7J6J8J9J9K1K1K3K3
17002G01K5K6K7K9K9L1L3L4L5L7L8L9M1M1M3M3M4M4M4M4M3M1M0L8L5L3K8K5K1J7J2QM%mpj0j1
16964A741j4j5j5j6j5j4j3j2j1qomkJLOPJ0J2J4J5J6J7J7J7J7J6J4J2RPKjnrj4j8k2k6l0l2l5
16921A616l8l9m0m2m1m2m2m1m0l9l8l7l5l4l3l1l0k9k7k5k4k3k2k0j9j8j7j6j5j4j3j2j2j0j0r
16884F39qppoonmmlkkjj%%JKKLLMNNOOPQRRJ0J1J2J3J3J5J5J7J8J9K0K1K2K4K5K6K7K9L0L2L2
16834A084L4L5L6L6L7L7L7L7L5L5L2L1K8K4K1J7J2QMkpj1j5k0k3k6k9l1l3l5l5l5l6l5l5l4l3
16796A145l3l1l0k8k8k6k4k4k2k1j9j9j7j6j6j4j3j2j1j1rrqpoonnmllkjjj%JJJLKLMMNNNOPPQ
16744G22QRJ0J0J1J1J2J3J3J4J5J6J6J8J8J9K1K1K2K4K4K6K8K8L1L1L4L5L6L9M1M3M4M8M9N3N5
16706A668N7O1O3O7P0P3P7Q0Q3Q7R0R3R6R9J02J04J05J07J07J07J05J04J01R8R2Q8Q1P5O8O1N3
16675D322M7L9L3K7K2J8J3J0QMK%lorj3j8k3k9l6m2m9n7o3p1p7q3q8r2r6r8j01j01j01j00r9r7
16637B993r5r2q9q6q2p9p5p1o8o4o1n7n3n1m7m4m0l8l5l2l0k6k5k1j9j7j5j2j0poljKMOQJ1J3
16598A586J5J8K1K3K6K8L1L4L7M0M2M6M8N1N4N7N9O1O4O4O7O6O7O6O5O2N9N4N0M3L6K8K0J0Jr
16561C090j8k7l7m4n2n8o4o8p2p4p6p7p8p7p6p5p3p1o9o7o4o1o0n6n4n2m9m7m4m2m1l8l6l4l3
16525A126l1k9k8k6k6k3k3k1k0j9j9j7j6j5j5j4j3j2j1j1j0j0rqqppoonnmmlllkjjj%%JJKKLLM
16476F50MMONPPQQRJ0J0J1J2J3J4J4J6J7J7J9K0K1K2K4K5K6K7K9L0L1L3L4L5L6L7L8L8L9L8L8
16435A482L7L6L4L2K9K6K2J9J4RN%nrj3j8k0k4k6k8l0l0l2l1l2l1l0k9k8k7k5k4k3k1j9j8j6j4
16396A142j3j1rqonmjjKKNOPRJ0J2J4J5J7J9K1K2K4K7K8L0L3L5L7M0M2M5M8N1N3N6O0O2O6O8P2
16353B122P4P7Q0Q2Q4Q5Q7Q7Q6Q6Q3Q1P7P3O7O0N4M5L8K9K0J2Mlj1j6k2k7l0l4l6l9m0m1m3m4
16317C207m5m7m8n0n3n4n7o0o1o4o6o8p0p1p1p2p2p1p1o9o8o7o5o3o1n8n7n4n3n0m8m6m3m2m0
16281A152l8l7l4l3l2l0k9k7k7k5k3k3k2k1k0j9j8j8j6j7j5j5j4j3j3j3j2j2j1j0j1j0rrrrqqq
16242D34ppppopoononnnnmnmmmmmmmllmlllllklklklkkkkkkkkjkkjkjkjjjkjjjjjjj%jjj%j%j%
16168B29j%%j%%%j%%%%%%J%%%J%%J%J%JJ%JJJJJJJJJJKJJKJKKJKKKKKKLKLKLLLLLLLMLMMMMMNM
16095C33NNNONOOPOPPPQQQRRRJ0J0J1J1J2J2J3J3J4J4J5J6J7J7J9J9K0K1K2K4K4K6K7K8L0L2L3
16049I66L4L7L8M1M2M5M7M9N2N4N6N9O1O4O6O8P0P2P4P4P5P5P4P2P0O8O2N8N2M4L7K8J9J0jj0
16013B802k0k8l8m5n1n8o3o7o9p2p4p4p3p4p2p1o8o7o5o2o0n7n5n3n0m7m6m3m1l9l7l5l3l2k9
15977I34k9k7k5k4k3k2k0k0j8j8j6j6j5j4j3j2j2j2j0j0j0rqqppponnnnmlmlkkkkjjj%%JJJJKK
15925D79LLLMMNNNOPPPQRRJ0J1J1J2J2J4J4J5J7J7J8J9K0K2K2K4K5K6K8K8L0L2L2L4L5L5L7L7
15881A201L7L8L7L7L5L4L2L0K7K3J9J6J0OJlqj3j7k1k5k7l0l1l3l5l4l6l5l4l4l3l2l2k9k9k7
15844I85k6k5k3k1k1j9j8j6j5j5j3j1j1j0qqpnnmlkj%JJLLNNOPQRJ0J2J2J3J5J6J7J8J9K1K2K4
15797I45K5K6K8K9L0L2L3L4L5L6L7L6L7L7L6L4L3L1K9K5K2J8J4RNjmj0j4j7k2k4k7k9l1l2l3l4
15758A378l3l3l2l2l0k9k8k7k5k3k2k0j9j7j5j4j2j1rqonljjKKNNQRJ0J2J3J5J7J8K0K1K3K5K6
15716A154K7K9L0L1L2L3L3L3L3L2L1K9K8K4K2J8J4J0O%mrj3j8k1k6k8l1l4l5l6l7l8l8l7l7l6
15678A171l6l4l3l2l1k9k8k7k5k4k3k2k0k0j8j7j6j5j5j3j2j2j1j0rrqppoonmmmllkjjj%%JJJK
15630E73KLLMMNNNOPPQQQJ0J0J0J1J2J3J3J4J5J6J7J8J8K0K1K2K3K5K6K7K9L0L2L4L5L8L9M2M4
15586A312M6M8N1N3N6N8O1O3O6O8P0P2P4P5P5P6P6P4P3O9O6O1N6M9M2L3K4J5Onj3k3l2l9m7n3
15550B756n8o2o6o8o9p0p0p0o9o7o5o3o0n8n6n3n0m7m5m2l9l7l4l2l0k7k5k3k1j8j7j5j2j1j0p
15513A190nmkjKLNORJ0J2J4J6J8K0K2K4K7K9L1L3L6L8M2M3M7M9N2N5N7N9O3O4O6O8O9P0P0O9O8
15473B544O5O3N9N3M8M1L3K4J6Nlj4k3l2m0m8n5o1o5p0p2p5p6p6p7p5p5p3p1o9o7o5o2o0n7n4
15436A436n3m9m8m5m3m1l9l7l5l4l2l0k9k7k6k5k4k2k2k0j9j9j8j6j7j5j5j4j3j3j2j2j1j1j0r
15399E31j0rqrpqpppooonnomnmnmlmlmlllklkkkkkkjkjjjjj%j%%j%%J%%JJ%JJJKJKJKKKLKKLLL
15327C87LMLMMMMNNNNNOOOPPPPQQRRRJ0J0J1J1J2J2J3J4J4J5J6J6J7J8J9K0K1K1K3K4K6K6K8L0
15278I54L0L3L4L5L7L9M1M3M4M7M8N0N2N3N5N7N7N9N9N9N9N8N7N6N4N2M9M5M2L9L5L1K7K3J9J6
15242B548J3ROL%mpj0j4j7k1k5k9l3l6l9m2m5m7m9n0n1n2n1n1m9m9m8m5m4m2m0l8l5l4l1k8k7
15203A396k4k2k0j8j6j3j2rqnmj%LMPQJ1J2J5J7J8K1K4K5K8L0L2L4L7L9M1M3M4M7M8M9N1N1N1
15162B034N1N1M9M8M6M4M0L8L4L1K7K2K0J5J2QOJjnpj1j5j8k1k5k9l3l7m1m4m7n0n3n5n7n8n9
15124A911n9n9n9n8n7n5n5n2n1n0m7m5m4m2m0l8l6l5l3l2l0k8k8k6k4k4k2k2k0j9j9j7j7j6j5
15088F37j5j4j3j3j2j1j1j1j0j0rrqqqppppoononnmnmmmmlmlllklkkljkkjkjjjjjj%j%%%%%%J%
15025C47JJ%JKJJKJKKKKLKLLLLLLMMMMNMNNONOOOPPPQQQRRRJ0J1J0J2J2J2J3J4J4J5J5J7J7J8
14967G14J9K0K1K2K3K4K5K7K8K9L1L3L4L6L8M0M2M4M6M9N1N3N6N8O1O3O6O8P0P2P4P5P6P6P6P6
14930B416P3P1O8O3N7N1M4L6K7J8Rkj1k0k9l8m4n1n7o1o4o8o8p0p0p0o8o8o5o4o1n8n6n4n0m8
14894A618m6m2m0l8l4l3l0k8k5k3k2j9j7j5j3j2rqomljJLMPQRJ2J4J5J7K0K1K4K6K8L0L3L5L8
14852A495M0M3M6M8N2N3N7N9O1O4O6O7O9O9P0O9O9O6O3O0N5M9M3L5K6J8Qjj1k1k9l9m6n3o0o4
14815B596o9p2p4p6p7p6p6p6p3p2p0o8o5o3o1n8n5n3n1m8m6m4m2l9l8l6l4l3l1k9k8k7k6k4k3
14780G63k2k1k0j9j8j8j6j6j5j5j4j3j3j2j1j2j0j1j0rrrqqqppppoooonnnnnmmnlmmlmllllklk
14726B99lkkkkjkkjjkjjjj%jj%%j%%%%%J%J%JJJJJJKJKKKKKKLLKLMLMMMMMNNNOOOOPPQQQRRJ0
14655D38J1J0J2J2J3J3J4J5J6J6J7J9J9K0K2K2K4K4K6K8K8L0L1L2L3L5L5L6L7L8L8L8L7L7L5L4
14618A345L2L0K6K2J9J5J0N%mj0j3j8k2k5k7l1l2l3l5l5l5l5l5l4l3l2l2k9k9k7k6k5k3k2k0k0
14580G62j8j6j6j4j4j2j1j0rqponnlljj%JJLMMOOPQJ0J0J1J3J3J5J6J7J8K0K1K2K4K5K6K8K9L0
14534I91L1L3L3L4L5L4L5L4L3L2L1K8K5K2J8J4J0O%mj0j3j9k2k6k9l2l4l6l7l8l8l9l8l8l7l6
14496I53l6l4l4l2l0l0k8k7k6k5k3k3k1k0k0j8j8j6j6j5j5j4j3j2j2j2j0j1j0rrrqqqpppopnoo
14452B50nnnnmnmmmmlmlmlllllkllklkkklkkkkkjkkkjkjkjkjkjjkjjjjkjjjjjjjjjj%jjjjj%jj
14379I8j%jjj%jj%j%jj%j%j%jj%j%j%%j%j%j%j%%j%j%%j%%j%%j%%j%%j%%j%%%j%%%j%%%j%%%j%
14305F7%%%j%%%j%%%%%j%%%%j%%%%%%j%%%%%%j%%%%%%j%%%%%%%%j%%%%%%%%%j%%%%%%%%%%%%j%
14230E7%%%%%%%%%%%%%%%%j%%%%%%%%%%%%%%%%%%%%%%%%%%%%%%%%%%%%%%%%%%%%%%%%%%%%%%%%
14156E6%%%%%%%%%%%%%%%%%%%%%%%%%%J%%%%%%%%%%%%%%%%%%J%%%%%%%%%%%%%J%%%%%%%%%%%J%
14082F0%%%%%%%%J%%%%%%%%J%%%%%%%J%%%%%%J%%%%%%J%%%%%J%%%%%J%%%%%J%%%%J%%%%J%%%%J
14008G1%%%%J%%%J%%%J%%%J%%%J%%%J%%J%%J%%%J%%J%%J%%J%%J%%J%J%%J%J%%J%J%%J%J%J%J%J
13933I5%J%J%J%J%J%J%JJ%J%JJ%J%JJ%JJ%JJJ%JJJ%JJJJ%JJJJJJJ%JJJJJJJJKJJJJJJKJJJJKJJ
13859A54KJKJKJJKKJKJKKKJKKKKKKKKKKKLKKLKKLLKLLLKLLLMLLLMLMMMMLNMMMNNMNNNONONOOPO
13786C75PPPPPQQQQRRRJ0J0J0J1J1J1J2J2J2J3J4J4J4J5J6J6J7J8J8J9K0K0K2K2K3K5K5K6K8K9
13743I82L0L2L3L4L7L8L9M2M4M6M8N1N3N6N9O2O5O8P2P6P9Q4Q8R2R6J02J06J11J16J21J25J31
13711C218J34J39J43J45J48J49J50J48J47J42J36J29J19J08R4P9O2M4K6Oj4l3n2o9q5r9j13j22
13682D879j32j38j44j46j48j49j48j46j44j40j36j32j27j23j17j13j08j03r8r4q9q5q1p7p3o9
13656A819o6o3o0n6n4n1m9m6m4m2m0l8l6l5l3l1l0k9k7k6k5k4k2k2k1k0j9j9j7j7j6j6j4j5j3
13620F83j3j3j2j2j1j1j0j0rj0qrqqpqpopooonnnnnmnmmmlmlllllklklkkkjkjkjjkj%jjj%j%%%
13556C87%%%%%J%J%JJJJJJJJKJKKKJKLKKKLKLLLLLLMLMLMMMMNMNNNNNNOOOOOOPPPPQPQRQRRRJ0
13484F51RJ1J0J1J1J1J2J3J2J3J4J4J4J5J5J6J6J7J8J8J9J9K0K1K2K2K3K4K5K6K7K8K9L0L2L2
13447A320L4L5L7L9L9M2M3M6M7M9N2N4N6N9O2O4O8P1P4P8Q2Q5R0R5R9J05J09J16J21J27J35J41
13415C674J48J56J64J73J81J90J99K09K19K28K38K48K57K67K74K83K89K93K98K98K97K93K86
13391I162K76K61K43K21J95J66J33R7O0K2j8n7r4j30j62j93k19k41k59k75k85k92k97k99k97
13366G718k94k90k83k75k67k59k48k39k30k19k10k00j91j82j73j65j57j49j42j34j29j21j16
13342C045j10j05j00r5r1q6q2p8p5p1o8o4o2o0n6n4n2n0m7m5m4m2m0l8l7l6l4l3l1l0k9k8k7k6
13308A119k5k5k3k2k2k1k0k0j8j9j7j7j7j6j5j5j4j4j4j3j2j3j2j1j1j1j1j0j0rrrrrqqqppqop
13265E47poooononnnnmnmnmmlmmlmlllllkllkkkkkkkkkjkjjjjjjjjj%j%%%j%%J%%J%J%JJJJKJJ
13192C97KJKKKKKLKLKLLMLLMMMMMMNNNNONOPOPPPPQQRQJ0RJ0J0J1J1J2J2J2J3J4J4J5J5J6J7J8
13135G90J8J9K0K0K2K3K4K4K6K8K8L0L1L3L4L6L8M0M2M4M6M8N1N3N7N9O2O6O9P3P6Q1Q4Q9R3R8
13098B475J03J07J13J17J22J27J31J36J40J43J46J48J48J49J47J43J39J32J24J13J01Q7P0N3L5
13073E449J6mk4m2o1p8r2j07j18j28j36j41j46j49j49j50j48j45j43j39j36j30j26j22j16j11
13046B624j07j02r7r2q9q3q0p6p3o8o6o2n9n6n4n1m8m6m4m2m0l8l7l5l3l2l0k9k8k6k6k4k3k3
13012H05k1k1k0j9j8j8j7j6j6j5j5j4j3j3j3j2j2j1j1j1j0j0rj0rqrqqqpppppopoonononnnnmn
12962B99mnmmmmmlmmllmllllllllkllklkklkklkkkkkkkkkjkkkjkkjkjkjkjkjjkjjkjjjkjjjjjj
12889A37kjjjjjjjjj%jjjjjjj%jjjj%jjj%jjj%jj%jj%j%jj%j%jj%j%j%j%j%jj%%j%j%j%j%j%j%
12815H7%j%j%%j%j%%j%%j%j%%j%%j%%j%%j%%%j%%j%%j%%%j%%%j%%j%%%%j%%%j%%%j%%%%j%%%j%
12741F5%%%j%%%%j%%%%%j%%%%j%%%%%j%%%%%%j%%%%%j%%%%%%j%%%%%%%j%%%%%%%j%%%%%%%%j%%
12667E4%%%%%%j%%%%%%%%%%j%%%%%%%%%%j%%%%%%%%%%%%j%%%%%%%%%%%%%%j%%%%%%%%%%%%%%%%
12593D9j%%%%%%%%%%%%%%%%%%%%%j%%%%%%%%%%%%%%%%%%%%%%%%%%%%%%%%%j%%%%%%%%%%%%%%%%
12518D6%%%%%%%%%%%%%%%%%%%%%%%%%%%%%%%%%%%%%%%%%%%%%%%%%%%%%%%%%%%J%%%%%%%%%%%%%
12444D7%%%%%%%%%%%%%%%%%J%%%%%%%%%%%%%%%%%%%J%%%%%%%%%%%%%%J%%%%%%%%%%%J%%%%%%%%
12370E1%%J%%%%%%%%J%%%%%%%J%%%%%%%J%%%%%J%%%%%%J%%%%J%%%%J%%%%J%%%%J%%%J%%%J%%%J
12296F4%%J%%%J%%J%%J%%J%J%%J%J%%J%J%J%J%J%J%J%J%JJ%J%JJ%JJJ%JJJ%JJJJJJJJJJJJJJJJ
12221A07JKJJKJKJJKKJKKKJKKKKLKKKLKLLLKLMLLMLMMMMMNMNNONOOOPOPQQQQRRJ0J0J1J2J1J3
12155C89J3J4J4J5J6J7J7J9J9K1K1K3K4K4K6K8K8L0L1L2L3L4L6L6L6L8L7L7L7L6L5L3L1K8K5K2
12119A355J7J3RLjoj1j5k0k3k7k9l2l4l6l6l7l7l7l7l6l5l5l3l3l1l0k8k8k6k5k4k3k2k0k0j8
12081E12j8j7j6j5j5j3j3j3j2j1j1j0rj0qrqpqpopoonnnnnmnmmlmmllllllklkklkkkkkjkkjkjk
12021A53jjjkjjjjjjj%jjj%jj%jj%j%%j%j%%%j%%%j%%%%%%%%%%%%%%J%%%%J%%%J%%J%J%J%J%J%
11948A37JJ%JJ%JJJ%JJJJJJJJJJJJKJJJKJJKJKKJKKJKKKKKKKLKKLKLKLLLLLLLMLMLMMMNMMNNNN
11874B89NOOOOOPPPPQQQRRRJ0J0J1J1J1J2J3J3J4J4J5J6J6J7J8J9K0K1K1K3K4K5K7K8K9L1L2L4
11830I38L6L7M0M1M4M6M8N0N3N6N7O0O3O5O7O9P1P3P4P4P5P4P3P1O9O4O0N4M8M0L1K3J3Moj6k6
11792B713l4m2m9n6o1o6o9p1p4p4p4p5p3p2p0o8o6o4o2n9n7n4n2m9m7m5m3m0l9l7l5l3l1l0k9
11756H13k7k6k4k4k2k1k0j9j9j7j7j6j5j4j4j3j3j2j2j1j0j1rj0rqqqqppppooononnmnnmmmmml
11707B72mlllllllklklkkkkkkkkjkkjkjjkjjjkjjjjj%jjj%jj%jj%%j%j%%j%%%%j%%%%%%%%%J%%
11633A89%J%%%J%J%J%J%JJ%JJ%JJJJJJJJJJJKJJJKJKJKJKKKJKKKKLKKKLKLKLLLLLLMLMLMMMMMN
11560C14MNNNNONOOOPPPPQQQQRRJ0J0J0J1J1J2J2J3J4J4J4J6J6J6J8J8K0K0K1K2K4K4K6K7K8L0
11513I02L2L3L4L7L8M1M2M5M7M9N1N4N6N9O1O4O6O8P0P2P3P4P5P5P4P3P0O7O3N8N2M5L7K9J9J0
11477B815%rk0k8l7m5n1n8o3o7o9p3p3p4p4p4p2p2o9o7o5o3o1n8n5n3n1m8m6m4m2l9l8l6l4l2
11440I55l1k9k8k6k5k4k3k1k1j9j9j7j7j6j6j4j4j3j3j2j2j1j0j1rrrrqqppppooononnmnmmmmm
11391C65lmlllllklkklkkkkjkkjjkjjkjjj%jjjj%j%j%%j%%%j%%%%%J%%%%J%J%%JJ%J%JJJ%JJJJ
11318C12JJJJKJJJKJJKJKJKKJKKKJKKKKKLKKKLKLKLKLLLLKLMLLLMLMLMMMMMMMNMNMNNNNONOONP
11245E22OOPOPQPPQQQRRRRRJ0J1J0J1J1J2J2J2J3J3J4J4J5J6J6J6J7J8J9J9K0K1K2K3K4K4K6K7
11200A111K9K9L1L2L4L5L7L9M1M2M5M6M9N1N4N5N9O1O3O6O9P1P4P6P8P9Q1Q3Q2Q3Q2Q0P8P5P0
11164C170O5N9N2M4L5K6J7Qlj1k0k8l5m1m7n1n4n7n8n9n9n8n8n5n3n2m8m6m3l9l7l4l0k8k5k1
11128B326j9j5j3j0qmkJLNRJ1J3J6J8K1K3K6K8L1L3L7L9M2M4M8N1N4N8O1O4O8P2P7Q0Q5Q9R5R9
11088C656J05J11J17J23J30J36J44J52J60J68J78J87J97K08K18K30K41K54K67K80K93L07L20
11065H182L34L48L61L74L85L96M05M11M17M19M18M13M04L92L74L53L25K95K60K21J78J34Q7M0r
11039A5917n6j02j46j89k27k63k94l23l47l67l83l95m04m08m11m09m05l99l92l82l71l60l48
11016H536l35l22l08k96k83k69k58k45k34k23k12k01j92j83j73j65j57j49j42j36j28j23j16
10992C686j12j06j01r6r2q8q4q0p6p3p0o7o4o1n9n6n3n2m9m8m5m4m1m0l9l7l5l4l3l2l0k9k8k6
10958A706k6k5k4k3k2k1k0j9j9j8j7j7j6j5j4j4j4j2j3j1j1j1j0j0rqrpqoponomnmlmklkjkj%%
10910A202%JJJKKLLLMMNNOOPPPRQJ0J0J0J1J2J2J3J4J5J6J6J7J8J9K0K1K2K3K5K5K7K8L0L1L2
10864A763L4L5L7L8M0M2M2M4M5M7M7M8M8M8M8M7M7M4M3M0L7L4L0K6K1J8J2RM%loqj1j3j3j4j4
10826B736j4j4j2j1j0qpmkjKMOQJ1J3J5J8J9K3K4K7K9L1L3L7L8M1M3M6M9N1N4N6O0O3O5O9P2P5
10785C735P9Q2Q7R0R5R8J03J08J13J18J24J29J35J42J48J55J63J70J78J87J96K06K15K27K38
10760G321K49K63K75K90L05L20L37L55L73L92M13M35M57M81N05N31N58N85O14O43O71P02P30
10736A7805P60P87Q13Q37Q58Q75Q87Q94Q92Q85Q67Q39Q01P51O90O17N32M39L35K25J10pj24k39
10712C2129l48m51n43o27o99p59q07q44q71q88q95q94q88q75q58q36q13p86p58p29p01o70o42
10688A4947o12n85n56n31n05m80m57m35m13l93l73l55l38l21l06k91k77k64k52k39k29k18k08
10665F309j99j89j81j74j65j59j52j45j39j33j28j23j18j13j08j04j01r6r3q9q6q2q0p7p4p1o9
10637C061o6o4o2o0n7n6n4n2n1m8m8m5m5m2m2m0l9l8l6l6l4l4l2l2l0l0k8k8k7k7k5k5k4k4k2
10602A658k3k1k1k0k0j9j9j8j8j7j7j6j5j6j5j4j4j4j3j3j2j3j1j2j1j1j0j0j0j0rrqrqqppppp
10560A119ooonnnnnmmmmlllllkkkkjkj%j%%%%%JJJKKKKKLLLLMMMNNNNOOOPPQPQRQJ0RJ0J1J1J1
10493A223J2J2J3J3J4J4J5J5J6J7J7J8J9J9K0K1K2K2K4K4K5K7K7K8L0L0L2L3L5L6L7L9M0M2M4
10457B075M6M7N0N2N4N6N9O1O4O7P0P4P6Q0Q4Q8R3R6J01J07J11J17J23J29J35J43J49J58J65
10428D730J74J83J92K02K13K23K34K46K58K71K83K97L09L22L36L48L60L72L82L92L99M04M09
10404A1539M09M07M01L93L80L64L44L18K90K58K22J82J41R5M9Km6r4j41j85k27k65l01l31l57
10379A3847l79l95m08m16m21m21m19m14m06l98l87l75l63l50l36l22l09k96k82k69k57k44k33
10356E747k22k11k00j91j82j73j65j56j49j42j36j29j23j17j12j06j02r8r3q9q5q1p8p5p1o9o6
10328B326o3o0n9n5n4n2n0m7m7m4m3m1m0l8l7l6l4l4l2l1l0k9k8k8k6k6k5k4k3k3k2k1k1k0j9
10293A064j9j9j8j7j7j7j6j5j6j4j5j4j4j3j3j3j2j2j2j1j2j1j0j1j0j0j0rj0rrqrqrqpqqpppp
10249E63ppoopoooonononnnnnnnnmnmmnmmmmmmmmlmlmlmlmllllllllllllkllklklklklkklkkkk
10176B83lkkkkkkkkkkjkkkkjkkkjkjkkjkjkjkjkjkjkjjkjjkjjjkjjjkjjjjjkjjjjjjjjjjjjjjj
10102A78jjjjjjjjjj%jjjjjj%jjjjj%jjj%jjj%jjj%jj%jj%jj%jj%jj%jj%j%jj%j%jj%j%j%j%jj
10029A25%j%j%j%j%j%j%j%j%j%j%%j%j%j%j%%j%j%j%%j%j%%j%j%%j%j%%j%%j%j%%j%%j%%j%%j%
9956I5%j%%j%%j%%j%%j%%%j%%j%%j%%%j%%j%%%j%%%j%%j%%%j%%%j%%%j%%%j%%%j%%%%j%%%j%%%
9881G5%j%%%j%%%%j%%%%j%%%%j%%%%j%%%%j%%%%j%%%%j%%%%%j%%%%%j%%%%%j%%%%%j%%%%%j%%%
9805F1%%j%%%%%%j%%%%%j%%%%%%j%%%%%%j%%%%%%%j%%%%%%j%%%%%%%j%%%%%%%j%%%%%%%j%%%%%
9730E1%%%j%%%%%%%%j%%%%%%%%j%%%%%%%%%j%%%%%%%%%j%%%%%%%%%j%%%%%%%%%%j%%%%%%%%%%j
9655D3%%%%%%%%%%j%%%%%%%%%%%j%%%%%%%%%%%%j%%%%%%%%%%%%j%%%%%%%%%%%%j%%%%%%%%%%%%
9579C8%j%%%%%%%%%%%%%%j%%%%%%%%%%%%%%%j%%%%%%%%%%%%%%%j%%%%%%%%%%%%%%%%%j%%%%%%%
9504C3%%%%%%%%%%j%%%%%%%%%%%%%%%%%%j%%%%%%%%%%%%%%%%%%%j%%%%%%%%%%%%%%%%%%%%%j%%
9429B9%%%%%%%%%%%%%%%%%%%j%%%%%%%%%%%%%%%%%%%%%%%%j%%%%%%%%%%%%%%%%%%%%%%%%j%%%%
9354B6%%%%%%%%%%%%%%%%%%%%%%%j%%%%%%%%%%%%%%%%%%%%%%%%%%%%%j%%%%%%%%%%%%%%%%%%%%
9278B4%%%%%%%%%%j%%%%%%%%%%%%%%%%%%%%%%%%%%%%%%%%%%j%%%%%%%%%%%%%%%%%%%%%%%%%%%%
9203B2%%%%%%%%j%%%%%%%%%%%%%%%%%%%%%%%%%%%%%%%%%%%%%%%%j%%%%%%%%%%%%%%%%%%%%%%%%
9128B0%%%%%%%%%%%%%%%%%%%j%%%%%%%%%%%%%%%%%%%%%%%%%%%%%%%%%%%%%%%%%%%%%%%%%j%%%%
9053A8%%%%%%%%%%%%%%%%%%%%%%%%%%%%%%%%%%%%%%%%%%%%%%%%%j%%%%%%%%%%%%%%%%%%%%%%%%
8977A7%%%%%%%%%%%%%%%%%%%%%%%%%%%%%%%%%%%%j%%%%%%%%%%%%%%%%%%%%%%%%%%%%%%%%%%%%%
8902A6%%%%%%%%%%%%%%%%%%%%%%%%%%%%%%%j%%%%%%%%%%%%%%%%%%%%%%%%%%%%%%%%%%%%%%%%%%
8827A5%%%%%%%%%%%%%%%%%%%%%%%%%%%%%%%%%%%%j%%%%%%%%%%%%%%%%%%%%%%%%%%%%%%%%%%%%%
8751A4%%%%%%%%%%%%%%%%%%%%%%%%%%%%%%%%%%%%%%%%%%%%%%%%%%%%%%j%%%%%%%%%%%%%%%%%%%
8676A3%%%%%%%%%%%%%%%%%%%%%%%%%%%%%%%%%%%%%%%%%%%%%%%%%%%%%%%%%%%%%%%%%%%%%%%%%%
8601A3%%%%%%%%%%%%%%%j%%%%%%%%%%%%%%%%%%%%%%%%%%%%%%%%%%%%%%%%%%%%%%%%%%%%%%%%%%
8526A2%%%%%%%%%%%%%%%%%%%%%%%%%%%%%%%%%%%%%%%%%%%%%%%%%%%%%%%%%%%%%%%%%%%%%%%%%%
8450A2j%%%%%%%%%%%%%%%%%%%%%%%%%%%%%%%%%%%%%%%%%%%%%%%%%%%%%%%%%%%%%%%%%%%%%%%%%
8375A1%%%%%%%%%%%%%%%%%%%%%%%%%%%%%%%%%%%%%%%%%%%%%%%%%%%%%%%%%%%%%%%%%%%%%%%%%%
8300A1%%%%%%%%%%%%%%%%%%%%%%%%j%%%%%%%%%%%%%%%%%%%%%%%%%%%%%%%%%%%%%%%%%%%%%%%%%
8224A0%%%%%%%%%%%%%%%%%%%%%%%%%%%%%%%%%%%%%%%%%%%%%%%%%%%%%%%%%%%%%%%%%%%%%%%%%%
8149A0%%%%%%%%%%%%%%%%%%%%%%%%%%%%%%%%%%%%%%%%%%%%%%%%%%%%%%%%%%%%%%%%%%%%%%%%%%
8074A0%%%%%%%%%%%%%%%%%%%%%%%%%%%%%%%%%%%%%%%%%%%%%%%%j%%%%%%%%%%%%%%%%%%%%%%%%%
7999I%%%%%%%%%%%%%%%%%%%%%%%%%%%%%%%%%%%%%%%%%%%%%%%%%%%%%%%%%%%%%%%%%%%%%%%%%%%
7922I%%%%%%%%%%%%%%%%%%%%%%%%%%%%%%%%%%%%%%%%%%%%%%%%%%%%%%%%%%%%%%%%%%%%%%%%%%%
7846I%%%%%%%%%%%%%%%%%%%%%%%%%%%%%%%%%%%%%%%%%%%%%%%%%%%%%%%%%%%%%%%%%%%%%%%%%%%
7770I%%%%%%%%%%%%%%%%%%%%%%%%%%%%%%%%%%%%%%%%%%%%%%%%%%%%%%%%%%%%%%%%%%%%%%%%%%%
7693I%%%%%%%%%%%%%%%%%%%%%%%%%%%%%%%%%%%%%%%%%%%%%%%%%%%%%%%%%%%%%%%%%%%%%%%%%%%
7617I%%%%%%%%%%%%%%%%%%%%%%%%%%%%%%%%%%%%%%%%%%%%%%%%%%%%%%%%%%%%%%%%%%%%%%%%%%%
7541I%%%%%%%%%%%%%%%%%%%%%%%%%%%%%%%%%%%%%%%%%%%%%%%%%%%%%%%%%%%%%%%%%%%%%%%%%%%
7465I%%%%%%%%%%%%%%%%%%%%%%%%%%%%%%%%%%%%%%%%%%%%%%%%%%%%%%%%%%%%%%%%%%%%%%%%%%%
7388I%%%%%%%%%%%%%%%%%%%%%%%%%%%%%%%%%%%%%%%%%%%%%%%%%%%%%%%%%%%%%%%%%%%%%%%%%%%
7312I%%%%%%%%%%%%%%%%%%%%%%%%%%%%%%%%%%%%%%%%%%%%%%%%%%%%%%%%%%%%%%%%%%%%%%%%%%%
7236I%%%%%%%%%%%%%%%%%%%%%%%%%%%%%%%%%%%%%%%%%%%%%%%%%%%%%%%%%%%%%%%%%%%%%%%%%%%
7159I%%%%%%%%%%%%%%%%%%%%%%%%%%%%%%%%%%%%%%%%%%%%%%%%%%%%%%%%%%%%%%%%%%%%%%%%%%%
7083I%%%%%%%%%%%%%%%%%%%%%%%%%%%%%%%%%%%%%%%%%%%%%%%%%%%%%%%%%%%%%%%%%%%%%%%%%%%
7007I%%%%%%%%%%%%%%%%%%%%%%%%%%%%%%%%%%%%%%%%%%%%%%%%%%%%%%%%%%%%%%%%%%%%%%%%%%%
6931I%%%%%%%%%%%%%%%%%%%%%%%%%%%%%%%%%%%%%%%%%%%%%%%%%%%%%%%%%%%%%%%%%%%%%%%%%%%
6854I%%%%%%%%%%%%%%%%%%%%%%%%%%%%%%%%%%%%%%%%%%%%%%%%%%%%%%%%%%%%%%%%%%%%%%%%%%%
6778I%%%%%%%%%%%%%%%%J%%%%%%%%%%%%%%%%%%%%%%%%%%%%%%%%%%%%%%%%%%%%%%%%%%%%%%%%%%
6702A0%%%%%%%%%%%%%%%%%%%%%%%%%%%%%%%%%%%%%%%%%%%%%%%%%%%%%%%%%%%%%%%%%%%%%%%%%%
6626A0%%%%%%%%%%%%%%%%%%%%%%%%%%%%%%%%%%%%%%%%%%%%%%%%%%%%%%%%%%%%%%%%%%%%%%%%%%
6551A0%%%%%%%%%%%%%%%%%%%%%%%%J%%%%%%%%%%%%%%%%%%%%%%%%%%%%%%%%%%%%%%%%%%%%%%%%%
6476A1%%%%%%%%%%%%%%%%%%%%%%%%%%%%%%%%%%%%%%%%%%%%%%%%%%%%%%%%%%%%%%%%%%%%%%%%%%
6401A1%%%%%%%%%%%%%%%%%%%%%%%%%%%%%%%%%%%%J%%%%%%%%%%%%%%%%%%%%%%%%%%%%%%%%%%%%%
6325A2%%%%%%%%%%%%%%%%%%%%%%%%%%%%%%%%%%%%%%%%%%%%%%%%%%%%%%%%%%%%%%%%%%%%%%%%%%
6250A2%%%%%%%%%%%J%%%%%%%%%%%%%%%%%%%%%%%%%%%%%%%%%%%%%%%%%%%%%%%%%%%%%%%%%%%%%%
6175A3%%%%%%%%%%%%%%%%%%%%%%%%%%%%%%%%%%%%%%J%%%%%%%%%%%%%%%%%%%%%%%%%%%%%%%%%%%
6099A4%%%%%%%%%%%%%%%%%%%%%%%%%%%%%%%%%%%%%%%%%%%%%%%%J%%%%%%%%%%%%%%%%%%%%%%%%%
6024A5%%%%%%%%%%%%%%%%%%%%%%%%%%%%%%%%%%%%%%%%%%%%%%%J%%%%%%%%%%%%%%%%%%%%%%%%%%
5949A6%%%%%%%%%%%%%%%%%%%%%%%%%%%%%%%%%%%%J%%%%%%%%%%%%%%%%%%%%%%%%%%%%%%%%%%%%%
5874A7%%%%%%%%%%%%%%%%%%%J%%%%%%%%%%%%%%%%%%%%%%%%%%%%%%%%%%%%%%%%%%%%%%%%%J%%%%
5798A9%%%%%%%%%%%%%%%%%%%%%%%%%%%%%%%%%%%%%%%%J%%%%%%%%%%%%%%%%%%%%%%%%%%%%%%%%%
5723B0%%%%%%%%J%%%%%%%%%%%%%%%%%%%%%%%%%%%%%%%%%%%%J%%%%%%%%%%%%%%%%%%%%%%%%%%%%
5648B2%%%%%%J%%%%%%%%%%%%%%%%%%%%%%%%%%%%%%%J%%%%%%%%%%%%%%%%%%%%%%%%%%%%%J%%%%%
5572B5%%%%%%%%%%%%%%%%%%%%%%J%%%%%%%%%%%%%%%%%%%%%%%%J%%%%%%%%%%%%%%%%%%%%%%%%J%
5497B8%%%%%%%%%%%%%%%%%%%%%J%%%%%%%%%%%%%%%%%%%%J%%%%%%%%%%%%%%%%%%%J%%%%%%%%%%%
5422C1%%%%%%%%J%%%%%%%%%%%%%%%%%J%%%%%%%%%%%%%%%%J%%%%%%%%%%%%%%%%J%%%%%%%%%%%%%
5347C5%J%%%%%%%%%%%%%%J%%%%%%%%%%%%%%J%%%%%%%%%%%%%J%%%%%%%%%%%%J%%%%%%%%%%%J%%%
5271D1%%%%%%%%%J%%%%%%%%%%J%%%%%%%%%%%J%%%%%%%%%J%%%%%%%%%%J%%%%%%%%%J%%%%%%%%%J
5196D8%%%%%%%%J%%%%%%%%J%%%%%%%%J%%%%%%%%J%%%%%%%J%%%%%%%J%%%%%%%J%%%%%%J%%%%%%%
5121E6J%%%%%%J%%%%%%J%%%%%%J%%%%%J%%%%%%J%%%%%J%%%%%J%%%%%J%%%%%J%%%%%J%%%%J%%%%
5046F8%J%%%%J%%%%J%%%%J%%%%J%%%%J%%%%J%%%J%%%%J%%%J%%%%J%%%J%%%J%%%J%%%%J%%%J%%J
4970H5%%%J%%%J%%%J%%J%%%J%%J%%%J%%J%%J%%%J%%J%%J%%J%%J%%J%%J%%J%%J%%J%%J%J%%J%%J
4895A08%J%%J%%J%J%%J%J%%J%J%J%%J%J%J%J%%J%J%J%J%J%J%J%J%J%J%J%J%J%J%J%JJ%J%J%JJ%
4821A42J%J%JJ%JJ%J%JJ%JJ%JJ%JJ%JJ%JJ%JJJ%JJJ%JJJ%JJJ%JJJJJ%JJJJJ%JJJJJJJJJ%JJJJJ
4746A97JJJJJJJJJJJJKJJJJJJJJKJJJJJKJJJKJJJKJJKJJKJJKJKJKJKJKJKJKJKJKKJKKJKKKJKKK
4672B95KJKKKKKKKKKKKKKKKKLKKKLKKLKKLKLKLKLLKLLKLLLLLLKLMLLLLLMLLMLLMLMMLMMMMMLNM
4598D96MMMMNMNMNMNNNNNNNNNONONOOOOOOOOPOPOPPPPPQPQQPQRQQRQRRRJ0RJ0J0J0J0J0J1J1J0
4533I31J2J1J2J1J2J3J2J3J3J3J4J3J5J4J5J4J6J5J6J7J6J7J8J7J8J9J9J9K0K0K1K2K1K3K2K4
4496A518K4K4K5K6K7K7K8K8K9L1L0L2L3L3L5L5L6L8L8M0M0M2M4M4M6M7M9N0N2N4N5N7N9O1O3O5
4460B965O7P0P2P4P8Q0Q3Q6Q9R3R7J00J04J08J12J17J22J27J32J38J43J50J56J64J70J78J87
4432F062J95K04K13K24K35K45K58K71K84K98L13L29L45L64L82M01M22M44M67M90N16N41N68N95
4408A4666O24O53O83P11P42P69P97Q23Q47Q66Q83Q94R00Q97Q88Q68Q39P99P47O84O08N23M27
4384C2138L22K11R6k2j38k52l61m61n53o34p03p62q08q43q68q82q89q87q78q66q46q25q01p73
4360A8715p46p16o87o58o28n99n71n44n17m92m67m44m21m00l80l60l42l25l08k93k78k64k50
4336H025k38k26k15k04j94j85j75j67j59j50j44j36j30j23j18j11j06j01r6r1q6q2p8p3p0o6o2
4309D439n9n5n3m9m5m3m1l7l4l2l0k6k4k2k0j6j5j2j0qnm%JMNRJ0J3J5J7K0K2K5K7L0L3L5L8M0
4268D143M4M7M9N3N6O0O3O7P0P5P8Q3Q7R2R7J02J07J13J18J25J31J38J45J53J60J69J77J86J97
4239G185K06K17K29K40K54K67K80K96L12L28L46L65L84M04M26M49M72M97N23N50N77O05O34O64
4214A6710O94P22P52P79Q06Q30Q51Q69Q81Q88Q88Q80Q63Q36P99P51O89O18N34M40L38K28J14m
4190C2756j21k35l45m48n42o26o98p59q09q46q73q91q98q99q92q80q62q42q18p91p64p35p05
4167A6477o76o47o18n89n63n35n10m85m62m39m18l97l78l59l42l26l09k95k81k68k55k44k32
4143F849k21k12k02j93j85j76j69j62j55j48j43j36j31j26j20j16j12j07j03r9r6r2q9q5q3p9
4117C309p7p4p2o9o7o4o3o0n9n6n5n3n2n0m8m7m6m4m3m2m0l9l9l7l6l5l4l3l3l1l1l0k9k9k7k7
4080A638k6k6k5k5k3k4k2k3k1k1k1k0k0j9j9j9j8j7j8j7j6j6j6j6j5j5j4j5j4j3j4j3j3j3j2j2
4043I87j2j2j2j1j1j1j1j0j1j0j0rj0rj0rrrqrqqqqqqqppqpppoppoopooooonoononnnonnmnnnm
3982E34nnmmnmmmnmmmlmmmmlmmlmllmllmlllllllllllllklllklkllklkklklkkklkkkklkkkkkkk
3908C11kkkkkjkkkkkjkkkjkkjkkjkjkkjkjkjkjjkjkjkjjkjjkjjjkjjjkjjjkjjjjjjkjjjjjjjjj
3834B06jjjjjjjjjjjjjjjjjjjj%jjjjjjj%jjjj%jjjj%jjjj%jj%jjj%jjj%jj%jj%jj%jj%jj%j%j
3760A47j%j%jj%j%jj%j%j%jj%j%j%j%j%j%j%j%j%j%j%j%j%j%j%j%j%%j%j%j%j%%j%j%%j%j%j%%
3685A11j%j%%j%%j%j%%j%%j%j%%j%%j%%j%%j%%j%%j%%j%%j%%j%%%j%%j%%j%%%j%%j%%%j%%j%%%
3611H7j%%j%%%j%%%j%%%j%%%j%%%j%%%j%%%j%%%%j%%%j%%%%j%%%j%%%%j%%%%j%%%%j%%%%j%%%%
3536G0j%%%%j%%%%j%%%%%j%%%%j%%%%%j%%%%%j%%%%%j%%%%%j%%%%%j%%%%%%j%%%%%j%%%%%%j%%
3461E7%%%%j%%%%%%j%%%%%%%j%%%%%%j%%%%%%%j%%%%%%%j%%%%%%%j%%%%%%%%j%%%%%%%%j%%%%%
3385D8%%%j%%%%%%%%j%%%%%%%%%j%%%%%%%%%j%%%%%%%%%%j%%%%%%%%%%j%%%%%%%%%%j%%%%%%%%
3310D1%%j%%%%%%%%%%%%j%%%%%%%%%%%j%%%%%%%%%%%%j%%%%%%%%%%%%%j%%%%%%%%%%%%%j%%%%%
3235C5%%%%%%%%%j%%%%%%%%%%%%%%%j%%%%%%%%%%%%%%%j%%%%%%%%%%%%%%%%j%%%%%%%%%%%%%%%
3159C1%%j%%%%%%%%%%%%%%%%%%j%%%%%%%%%%%%%%%%%%%j%%%%%%%%%%%%%%%%%%%%j%%%%%%%%%%%
3084B7%%%%%%%%%%j%%%%%%%%%%%%%%%%%%%%%%%j%%%%%%%%%%%%%%%%%%%%%%%%j%%%%%%%%%%%%%%
3009B4%%%%%%%%%%%%j%%%%%%%%%%%%%%%%%%%%%%%%%%%%j%%%%%%%%%%%%%%%%%%%%%%%%%%%%%j%%
2934B1%%%%%%%%%%%%%%%%%%%%%%%%%%%%%%j%%%%%%%%%%%%%%%%%%%%%%%%%%%%%%%%%%%j%%%%%%%
2858A9%%%%%%%%%%%%%%%%%%%%%%%%%%%%%%%j%%%%%%%%%%%%%%%%%%%%%%%%%%%%%%%%%%%%%%%%%j
2783A7%%%%%%%%%%%%%%%%%%%%%%%%%%%%%%%%%%%%%%%%%%%%%j%%%%%%%%%%%%%%%%%%%%%%%%%%%%
2708A6%%%%%%%%%%%%%%%%%%%%%%j%%%%%%%%%%%%%%%%%%%%%%%%%%%%%%%%%%%%%%%%%%%%%%%%%%%
2633A5%%%%j%%%%%%%%%%%%%%%%%%%%%%%%%%%%%%%%%%%%%%%%%%%%%%%%%%%%%%%%%%%%%j%%%%%%%
2557A3%%%%%%%%%%%%%%%%%%%%%%%%%%%%%%%%%%%%%%%%%%%%%%%%%%%%%%%%%%%%%%%j%%%%%%%%%%
2482A2%%%%%%%%%%%%%%%%%%%%%%%%%%%%%%%%%%%%%%%%%%%%%%%%%%%%%%%%%%%%%%%%%%%%%j%%%%
2407A1%%%%%%%%%%%%%%%%%%%%%%%%%%%%%%%%%%%%%%%%%%%%%%%%%%%%%%%%%%%%%%%%%%%%%%%%%%
2331A1%%%%%%%%%%%%%j%%%%%%%%%%%%%%%%%%%%%%%%%%%%%%%%%%%%%%%%%%%%%%%%%%%%%%%%%%%%
2256A0%%%%%%%%%%%%%%%%%%%%%%%%%%%%%%%%%%%%%%%%%%%%%%j%%%%%%%%%%%%%%%%%%%%%%%%%%%
2181I%%%%%%%%%%%%%%%%%%%%%%%%%%%%%%%%%%%%%%%%%%%%%%%%%%%%%%%%%%%%%%%%%%%%%%%%%%%
2105I%%%%%%%%%%%%%%%%%%%%%%%%j%%%%%%%%%%%%%%%%%%%%%%%%%%%%%%%%%%%%%%%%%%%%%%%%%%
2028H%%%%%%%%%%%%%%%%%%%%%%%%%%%%%%%%%%%%%%%%%%%%%%%%%%%%%%%%%%%%%%%%%%%%%%%%%%%
1952H%%%%%%%%%%%%%%%%%%%%%%%%%%%%j%%%%%%%%%%%%%%%%%%%%%%%%%%%%%%%%%%%%%%%%%%%%%%
1876G%%%%%%%%%%%%%%%%%%%%%%%%%%%%%%%%%%%%%%%%%%%%%%%%%%%%%%%%%%%%%%%%%%%%%%%%%%%
1799G%%%%%%%%%%%%%%%%%%%%%%%%%%%%%%%%%%%%%%%%%%%%%%%%%%%%%%%%%%%%%%%%%%%%%j%%%%%
1723F%%%%%%%%%%%%%%%%%%%%%%%%%%%%%%%%%%%%%%%%%%%%%%%%%%%%%%%%%%%%%%%%%%%%%%%%%%%
1647F%%%%%%%%%%%%%%%%%%%%%%%%%%%%%%%%%%%%%%%%%%%%%%%%%%%%%%%%%%%%%%%%%%%%%%%%%%%
1571F%%%%%%%%%%%%%%%%%%%%%%%%%%%%%%%%%%%%%%%%%%%%%%%%%%%%%%%%%%%%%%%%%%%%%%%%%%%
1494F%%%%%%%%%%%%%%%j%%%%%%%%%%%%%%%%%%%%%%%%%%%%%%%%%%%%%%%%%%%%%%%%%%%%%%%%%%%
1418E%%%%%%%%%%%%%%%%%%%%%%%%%%%%%%%%%%%%%%%%%%%%%%%%%%%%%%%%%%%%%%%%%%%%%%%%%%%
1342E%%%%%%%%%%%%%%%%%%%%%%%%%%%%%%%%%%%%%%%%%%%%%%%%%%%%%%%%%%%%%%%%%%%%%%%%%%%
1265E%%%%%%%%%%%%%%%%%%%%%%%%%%%%%%%%%%%%%%%%%%%%%%%%%%%%%%%%%%%%%%%%%%%%%%%%%%%
1189E%%%%%%%%%%%%%%%%%%%%%%%%%%%%%%%%%%%%%%%%%%%%%%%%j%%%%%%%%%%%%%%%%%%%%%%%%%%
1113D%%%%%%%%%%%%%%%%%%%%%%%%%%%%%%%%%%%%%%%%%%%%%%%%%%%%%%%%%%%%%%%%%%%%%%%%%%%
1036D%%%%%%%%%%%%%%%%%%%%%%%%%%%%%%%%%%%%%%%%%%%%%%%%%%%%%%%%%%%%%%%%%%%%%%%%%%%
960D%%%%%%%%%%%%%%%%%%%%%%%%%%%%%%%%%%%%%%%%%%%%%%%%%%%%%%%%%%%%%%%%%%%%%%%%%%%%
883D%%%%%%%%%%%%%%%%%%%%%%%%%%%%%%%%%%%%%%%%%%%%%%%%%%%%%%%%%%%%%%%%%%%%%%%%%%%%
806D%%%%%%%%%%%%%%%%%%%%%%%%%%%%%%%%%%%%%%%%%%%%%%%%%%%%%%%%%%%%%%%%%%%%%%%%%%%%
728D%%%%%%%%%%%%%%%%%%%%%%%%%%%%%%%%%%%%%%%%%%%%%%%%%%%%%%%%%%%%%%%%%%%%%%%%%%%%
651D%%j%%%%%%%%%%%%%%%%%%%%%%%%%%%%%%%%%%%%%%%%%%%%%%%%%%%%%%%%%%%%%%%%%%%%%%%%%
574C%%%%%%%%%%%%%%%%%%%%%%%%%%%%%%%%%%%%%%%%%%%%%%%%%%%%%%%%%%%%%%%%%%%%%%%%%%%%
496C%%%%%%%%%%%%%%%%%%%%%%%%%%%%%%%%%%%%%%%%%%%%%%%%%%%%%%%%%%%%%%%%%%%%%%%%%%%%
419C%%%%%%%%%%%%%%%%%%%%%%%%%%%%%%%%%%%%%%%%%%%%%%%%%%%%%%%%%%%%%%%%%%%%%%%%%%%%
342C%%%%%%%%%%%%%%%%%%%%%%%%%%%%%%%%%%%%%%%%%%%%%%%%%%%%%%%%%%%%%%%%%%%%%%%%%%%%
264C%%%%%%%%%%%%%%%%%%%%%%%%%%%%%%%%%%%%%%%%%%%%%%%%%%%%%%%%%%%%%%%%%%%%%%%%%%%%
187C%%%%%%%%%%%%%%%%%%%%%%%%%%%%%%%%%%%%%%%%%%%%%%%%%%%%%%%%%%%%%%%%%%%%%%%%%%%%
110C%%%%%%%%%%%%%%%%%%%%%%%%%%%%%%%%%%%%%%%%%%%%%%%%%%%%%%%%%%%%%%%%%%%%%%%%%%%%
32C%%%%%%%%%%%%%%%%%%%%%%%%%%%%%%%%%%%%%%%%%%%%%%%%%%%%%%%%%%%%%%%%%%%%%%%%%%%%%
-46C%%%%%%%%%%%%%%%%%%%%%%%%%%%%%%%%%%%%%%%%%%%%%%%%%%%%%%%%%%%%%%%%%%%%%%%%%%%%
-123C%%%%%%%%%%%%%%%%%%%%%%%%%%%%%%j%%%%%%%%%%%%%%%%%%%%%%%%%%%%%%%%%%%%%%%%%%%%
-200B%%%%%%%%%%%%%%%%%%%%%%%%%%%%%%%%%%%%%%%%%%%%%%%%%%%%%%%%%%%%%%%%%%%%%%%%%%%
-276B%%%%%%%%%%%%%%%%%%%%%%%%%%%%%%%%%%%%%%%%%%%%%%%%%%%%%%%%%%%%%%%%%%%%%%%%%%%
-352B%%%%%%%%%%%%%%%%%%%%%%%%%%%%%%%%%%%%%%%%%%%%%%%%%%%%%%%%%%%%%%%%%%%%%%%%%%%
-428B%%%%%%%%%%%%%%%%%%%%%%%%%%%%%%%%%%%%%%%%%%%%%%%%%%%%%%%%%%%%%%%%%%%%%%%%%%%
-505B%%%%%%%%%%%%%%%%%%%%%%%%%%%%%%%%%%%%%%%%%%%%%%%%%%%%%%%%%%%%%%%%%%%%%%%%%%%
-581B%%%%%%%%%%%%%%%%%%%%%%%%%%%%%%%%%%%%%%%%%%%%%%%%%%%%%%%%%%%%%%%%%%%%%%%%%%%
-657B%%%%%%%%%%%%%%%%%%%%%%%%%%%%%%%%%%%%%%%%%%%%%%%%%%%%%%%%%%%%%%%%%%%%%%%%%%%
-734B%%%%%%%%%%%%%%%%%%%%%%%%%%%%%%%%%%%%%%%%%%%%%%%%%%%%%%%%%%%%%%%%%%%%%%%%%%%
-810B%%%%%%%%%%%%%%%%%%%%%%%%%%%%%%%%%%%%%%%%%%%%%%%%%%%%%%%%%%%%%%%%%%%%%%%%%%%
-886B%%%%%%%%%%%%%%%%%%%%%%%%%%%%%%%%%%%%%%%%%%%%%%%%%%%%%%%%%%%%%%%%%%%%%%%%%%%
-962B%%%%%%%%%%%%%%%%%%%%%%%%%%%%%%%%%%%%%%%%%%%%%%%%%%%%%%%%%%%%%%%%%%%%%%%%%%%
-1039B%%%%%%%%%%%%%%%%%%%%%%%%%%%%%%%%%%%%%%%%%%%%%%%%%%%%%%%%%%%%%%%%%%%%%%%%%%
-1114B%%%%%%%%%%%%%%%%%%%%%%%%%%%%%%%%%%%%%%%%%%%%%%%%%%%%%%%%%%%%%%%%%%%%%%%%%%
-1189B%%%%%%%%%%%%%%%%%%%%%%%%%%%%%%%%%%%%%%%%%%%%%%%%%%%%%%%%%%%%%%%%%%%%%%%%%%
-1265B%%%%%%%%%%%%%%%%%%%%%%%%%%%%%%%%%%%%%%%%%%%%%%%%%%%%%%%%%%%%%%%%%%%%%%%%%%
-1340B%%%%%%%%%%%%%%%%%%%%%%%%%%%%%%%%%%%%%%%%%%%%%%%%%%%%%%%%%%%%%%%%%%%%%%%%%%
-1415B%%%%%%%%%%%%%%%%%%%%%%%%%%%%%%%%%%%%%%%%%%%%%%%%%%%%%%%%%%%%%%%%%%%%%%%%%%
-1490B%%%%%%%%%%%%%%%%%%%%%%%%%%%%%%%%%%%%%%%%%%%%%%%%%%%%%%%%%%%%%%%%%%%%%%%%%%
-1566B%%%%%%%%%%%%%%%%%%%%%%%%%%%%%%%%%%%%%%%%%%%%%%%%%%%%%%%%%%%%%%%%%%%%%%%%%%
-1641B%%%%%%%%%%%%%%%%%%%%%%%%%%%%%%%%%%%%%%%%%%%%%%%%%%%%%%%%%%%%%%%%%%%%%%%%%%
-1716B%%%%%%%%%%%%%%%%%%%%%%%%%%%%%%%%%%%%%%%%%%%%%%%%%%%%%%%%%%%%%%%%%%%%%%j%%%
-1792A%%%%%%%%%%%%%%%%%%%%%%%%%%%%%%%%%%%%%%%%%%%%%%%%%%%%%%%%%%%%%%%%%%%%%%%%%%
-1867A%%%%%%%%%%%%%%%%%%%%%%%%%%%%%%%%%%%%%%%%%%%%%%%%%%%%%%%%%%%%%%%%%%%%%%%%%%
-1942A%%%%%%%%%%%%%%%%%%%%%%%%%%%%%%%%%%%%%%%%%%%%%%%%%%%%%%%%%%%%%%%%%%%%%%%%%%
-2017A%%%%%%%%%%%%%%%%%%%%%%%%%%%%%%%%%%%%%%%%%%%%%%%%%%%%%%%%%%%%%%%%%%%%%%%%%%
-2093A%%%%%%%%%%%%%%%%%%%%%%%%%%%%%%%%%%%%%%%%%%%%%%%%%%%%%%%%%%%%%%%%%%%%%%%%%%
-2168A%%%%%%%%%%%%%%%%%%%%%%%%%%%%%%%%%%%%%%%%%%%%%%%%%%%%%%%%%%%%%%%%%%%%%%%%%%
-2243A%%%%%%%%%%%%%%%%%%%%%%%%%%%%%%%%%%%%%%%%%%%%%%%%%%%%%%%%%%%%%%%%%%%%%%%%%%
-2318A%%%%%%%%%%%%%%%%%%%%%%%%%%%%%%%%%%%%%%%%%%%%%%%%%%%%%%%%%%%%%%%%%%%%%%%%%%
-2394A%%%%%%%%%%%%%%%%%%%%%%%%%%%%%%%%%%%%%%%%%%%%%%%%%%%%%%%%%%%%%%%%%%%%%%%%%%
-2469A%%%%%%%%%%%%%%%%%%%%%%%%%%%%%%%%%%%%%%%%%%%%%%%%%%%%%%%%%%%%%%%%%%%%%%%%%%
-2544A%%%%%%%%%%%%%%%%%%%%%%%%%%%%%%%%%%%%%%%%%%%%%%%%%%%%%%%%%%%%%%%%%%%%%%%%%%
-2620A%%%%%%%%%%%%%%%%%%%%%%%%%%%%%%%%%%%%%%%%%%%%%%%%%%%%%%%%%%%%%%%%%%%%%%%%%%
-2695A%%%%%%%%%%%%%%%%%%%%%%%%%%%%%%%%%%%%%%%%%%%%%%%%%%%%%%%%%%%%%%%%%%%%%%%%%%
-2770A%%%%%%%%%%%%%%%%%%%%%%%%%%%%%%%%%%%%%%%%%%%%%%%%%%%%%%%%%%%%%%%%%%%%%%%%%%
-2845A%%%%%%%%%%%%%%%%%%%%%%%%%%%%%%%%%%%%%%%%%%%%%%%%%%%%%%%%%%%%%%%%%%%%%%%%%%
-2921A%%%%%%%%%%%%%%%%%%%%%%%%%%%%%%%%%%%%%%%%%%%%%%%%%%%%%%%%%%%%%%%%%%%%%%%%%%
-2996A%%%%%%%%%%%%%%%%%%%%%%%%%%%%%%%%%%%%%%%%%%%%%%%%%%%%%%%%%%%%%%%%%%%%%%%%%%
-3071A%%%%%%%%%%%%%%%%%%%%%%%%%%%%%%%%%%%%%%%%%%%%%%%%%%%%%%%%%%%%%%%%%%%%%%%%%%
-3147A%%%%%%%%%%%%%%%%%%%%%%%%%%%%%%%%%%%%%%%%%%%%%%%%%%%%%%%%%%%%%%%%%%%%%%%%%%
-3222A%%%%%%%%%%%%%%%%%%%%%%%%%%%%%%%%%%%%%%%%%%%%%%%%%%%%%%%%%%%%%%%%%%%%%%%%%%
-3297A%%%%%%%%%%%%%%%%%%%%%%%%%%%%%%%%%%%%%%%%%%%%%%%%%%%%%%%%%%%%%%%%%%%%%%%%%%
-3372A%%%%%%%%%%%%%%%%%%%%%%%%%%%%%%%%%%%%%%%%%%%%%%%%%%%%%%%%%%%%%%%%%%%%%%%%%%
-3448A%%%%%%%%%%%%%%%%%%%%%%%%%%%%%%%%%%%%%%%%%%%%%%%%%%%%%%%%%%%%%%%%%%%%%%%%%%
-3523A%%%%%%%%%%%%%%%%%%%%%%%%%%%%%%%%%%%%%%%%%%%%%%%%%%%%%%%%%%%%%%%%%%%%%%%%%%
-3598A%%%%%%%%%%%%%%%%%%%%%%%%%%%%%%%%%%%%%%%%%%%%%%%%%%%%%%%%%%%%%%%%%%%%%%%%%%
-3674A%%%%%%%%%%%%%%%%%%%%%%%%%%%%%%%%%%%%%%%%%%%%%%%%%%%%%%%%%%%%%%%%%%%%%%%%%%
-3749A%%%%%%%%%%%%%%%%%%%%%%%%%%%%%%%%%%%%%%%%%%%%%%%%%%%%%%%%%%%%%%%%%%%%%%%%%%
-3824A%%%%%%%%%%%%%%%%%%%%%%%%%%%%%%%%%%%%%%%%%%%%%%%%%%%%%%%%%%%%%%%%%%%%%%%%%%
-3899A%%%%%%%%%%%%%%%%%%%%%%%%%%%%%%%%%%%%%%%%%%%%%%%%%%%%%%%%%%%%%%%%%%%%%%%%%%
-3975A%%%%%%%%%%%%%%%%%%%%%%%%%%%%%%%%%%%%%%%%%%%%%%%%%%%%%%%%%%%%%%%%%%%%%%%%%%
-4050A%%%%%%%%%%%%%%%%%%%%%%%%%%%%%%%%%%%%%%%%%%%%%%%%%%%%%%%%%%%%%%%%%%%%%%%%%%
-4125A%%%%%%%%%%%%%%%%%%%%%%%%%%%%%%%%%%%%%%%%%%%%%%%%%%%%%%%%%%%%%%%%%%%%%%%%%%
-4200A%%%%%%%%%%%%%%%%%%%%%%%%%%%%%%%%%%%%%%%%%%%%%%%%%%%%%%%%%%%%%%%%%%%%%%%%%%
-4276A%%%%%%%%%%%%%%%%%%%%%%%%%%%%%%%%%%%%%%%%%%%%%%%%%%%%%%%%%%%%%%%%%%%%%%%%%%
-4351A%%%%%%%%%%%%%%%%%%%%%%%%%%%%%%%%%%%%%%%%%%%%%%%%%%%%%%%%%%%%%%%%%%%%%%%%%%
-4426A%%%%%%%%%%%%%%%%%%%%%%%%%%%%%%%%%%%%%%%%%%%%%%%%%%%%%%%%%%%%%%%%%%%%%%%%%%
-4502A%%%%%%%%%%%%%%%%%%%%%%%%%%%%%%%%%%%%%%%%%%%%%%%%%%%%%%%%%%%%%%%%%%%%%%%%%%
-4577A%%%%%%%%%%%%%%%%%%%%%%%%%%%%%%%%%%%%%%%%%%%%%%%%%%%%%%%%%%%%%%%%%%%%%%%%%%
-4652A%%%%%%%%%%%%%%%%%%%%%%%%%%%%%%%%%%%%%%%%%%%%%%%%%%%%%%%%%%%%%%%%%%%%%%%%%%
-4727A%%%%%%%%%%%%%%%%%%%%%%%%%%%%%%%%%%%%%%%%%%%%%%%%%%%%%%%%%%%%%%%%%%%%%%%%%%
-4803A%%%%%%%%%%%%%%%%%%%%%%%%%%%%%%%%%%%%%%%%%%%%%%%%%%%%%%%%%%%%%%%%%%%%%%%%%%
-4878A%%%%%%%%%%%%%%%%%%%%%%%%%%%%%%%%%%%%%%%%%%%%%%%%%%%%%%%%%%%%%%%%%%%%%%%%%%
-4953A%%%%%%%%%%%%%%%%%%%%%%%%%%%%%%%%%%%%%%%%%%%%%%%%%%%%%%%%%%%%%%%%%%%%%%%%%%
-5029A%%%%%%%%%%%%%%%%%%%%%%%%%%%%%%%%%%%%%%%%%%%%%%%%%%%%%%%%%%%%%%%%%%%%%%%%%%
-5104A%%%%%%%%%%%%%%%%%%%%%%%%%%%%%%%%%%%%%%%%%%%%%%%%%%%%%%%%%%%%%%%%%%%%%%%%%%
-5179A%%%%%%%%%%%%%%%%%%%%%%%%%%%%%%%%%%%%%%%%%%%%%%%%%%%%%%%%%%%%%%%%%%%%%%%%%%
-5254A%%%%%%%%%%%%%%%%%%%%%%%%%%%%%%%%%%%%%%%%%%%%%%%%%%%%%%%%%%%%%%%%%%%%%%%%%%
-5330A%%%%%%%%%%%%%%%%%%%%%%%%%%%%%%%%%%%%%%%%%%%%%%%%%%%%%%%%%%%%%%%%%%%%%%%%%%
-5405A%%%%%%%%%%%%%%%%%%%%%%%%%%%%%%%%%%%%%%%%%%%%%%%%%%%%%%%%%%%%%%%%%%%%%%%%%%
-5480A%%%%%%%%%%%%%%%%%%%%%%%%%%%%%%%%%%%%%%%%%%%%%%%%%%%%%%%%%%%%%%%%%%%%%%%%%%
-5555A%%%%%%%%%%%%%%%%%%%%%%%%%%%%%%%%%%%%%%%%%%%%%%%%%%%%%%%%%%%%%%%%%%%%%%%%%%
-5631A%%%%%%%%%%%%%%%%%%%%%%%%%%%%%%%%%%%%%%%%%%%%%%%%%%%%%%%%%%%%%%%%%%%%%%%%%%
-5706A%%%%%%%%%%%%%%%%%%%%%%%%%%%%%%%%%%%%%%%%%%%%%%%%%%%%%%%%%%%%%%%%%%%%%%%%%%
-5781A%%%%%%%%%%%%%%%%%%%%%%%%%%%%%%%%%%%%%%%%%%%%%%%%%%%%%%%%%%%%%%%%%%%%%%%%%%
-5857A%%%%%%%%%%%%%%%%%%%%%%%%%%%%%%%%%%%%%%%%%%%%%%%%%%%%%%%%%%%%%%%%%%%%%%%%%%
-5932A%%%%%%%%%%%%%%%%%%%%%%%%%%%%%%%%%%%%%%%%%%%%%%%%%%%%%%%%%%%%%%%%%%%%%%%%%%
-6007A%%%%%%%%%%%%%%%%%%%%%%%%%%%%%%%%%%%%%%%%%%%%%%%%%%%%%%%%%%%%%%%%%%%%%%%%%%
-6082A%%%%%%%%%%%%%%%%%%%%%%%%%%%%%%%%%%%%%%%%%%%%%%%%%%%%%%%%%%%%%%%%%%%%%%%%%%
-6158A%%%%%%%%%%%%%%%%%%%%%%%%%%%%%%%%%%%%%%%%%%%%%%%%%%%%%%%%%%%%%%%%%%%%%%%%%%
-6233A%%%%%%%%%%%%%%%%%%%%%%%%%%%%%%%%%%%%%%%%%%%%%%%%%%%%%%%%%%%%%%%%%%%%%%%%%%
-6308A%%%%%%%%%%%%%%%%%%%%%%%%%%%%%%%%%%%%%%%%%%%%%%%%%%%%%%%%%%%%%%%%%%%%%%%%%%
-6384A%%%%%%%%%%%%%%%%%%%%%%%%%%%%%%%%%%%%%%%%%%%%%%%%%%%%%%%%%%%%%%%%%%%%%%%%%%
-6459A%%%%%%%%%%%%%%%%%%%%%%%%%%%%%%%%%%%%%%%%%%%%%%%%%%%%%%%%%%%%%%%%%%%%%%%%%%
-6534A%%%%%%%%%%%%%%%%%%%%%%%%%%%%%%%%%%%%%%%%%%%%%%%%%%%%%%%%%%%%%%%%%%%%%%%%%%
-6609A%%%%%%%%%%%%%%%%%%%%%%%%%%%%%%%%%%%%%%%%%%%%%%%%%%%%%%%%%%%%%%%%%%%%%%%%%%
-6685A%%%%%%%%%%%%%%%%%%%%%%%%%%%%%%%%%%%%%%%%%%%%%%%%%%%%%%%%%%%%%%%%%%%%%%%%%%
-6760A%%%%%%%%%%%%%%%%%%%%%%%%%%%%%%%%%%%%%%%%%%%%%%%%%%%%%%%%%%%%%%%%%%%%%%%%%%
-6835A%%%%%%%%%%%%%%%%%%%%%%%%%%%%%%%%%%%%%%%%%%%%%%%%%%%%%%%%%%%%%%%%%%%%%%%%%%
-6910A%%%%%%%%%%%%%%%%%%%%%%%%%%%%%%%%%%%%%%%%%%%%%%%%%%%%%%%%%%%%%%%%%%%%%%%%%%
-6986A%%%%%%%%%%%%%%%%%%%%%%%%%%%%%%%%%%%%%%%%%%%%%%%%%%%%%%%%%%%%%%%%%%%%%%%%%%
-7061A%%%%%%%%%%%%%%%%%%%%%%%%%%%%%%%%%%%%%%%%%%%%%%%%%%%%%%%%%%%%%%%%%%%%%%%%%%
-7136A%%%%%%%%%%%%%%%%%%%%%%%%%%%%%%%%%%%%%%%%%%%%%%%%%%%%%%%%%%%%%%%%%%%%%%%%%%
-7212A%%%%%%%%%%%%%%%%%%%%%%%%%%%%%%%%%%%%%%%%%%%%%%%%%%%%%%%%%%%%%%%%%%%%%%%%%%
-7287A%%%%%%%%%%%%%%%%%%%%%%%%%%%%%%%%%%%%%%%%%%%%%%%%%%%%%%%%%%%%%%%%%%%%%%%%%%
-7362A%%%%%%%%%%%%%%%%%%%%%%%%%%%%%%%%%%%%%%%%%%%%%%%%%%%%%%%%%%%%%%%%%%%%%%%%%%
-7437A%%%%%%%%%%%%%%%%%%%%%%%%%%%%%%%%%%%%%%%%%%%%%%%%%%%%%%%%%%%%%%%%%%%%%%%%%%
-7513A%%%%%%%%%%%%%%%%%%%%%%%%%%%%%%%%%%%%%%%%%%%%%%%%%%%%%%%%%%%%%%%%%%%%%%%%%%
-7588A%%%%%%%%%%%%%%%%%%%%%%%%%%%%%%%%%%%%%%%%%%%%%%%%%%%%%%%%%%%%%%%%%%%%%%%%%%
-7663A%%%%%%%%%%%%%%%%%%%%%%%%%%%%%%%%%%%%%%%%%%%%%%%%%%%%%%%%%%%%%%%%%%%%%%%%%%
-7739A%%%%%%%%%%%%%%%%%%%%%%%%%%%%%%%%%%%%%%%%%%%%%%%%%%%%%%%%%%%%%%%%%%%%%%%%%%
-7814A%%%%%%%%%%%%%%%%%%%%%%%%%%%%%%%%%%%%%%%%%%%%%%%%%%%%%%%%%%%%%%%%%%%%%%%%%%
-7889A%%%%%%%%%%%%%%%%%%%%%%%%%%%%%%%%%%%%%%%%%%%%%%%%%%%%%%%%%%%%%%%%%%%%%%%%%%
-7964A%%%%%%%%%%%%%j%%%%%%%%%%%%%%%%%%%%%%%%%%%%%%%%%%%%%%%%%%%%%%%%%%%%%%%%%%%%
-8040@%%%%%%%%%%%%%%%%%%%%%%%%%%%%%%%%%%%%%%%%%%%%%%%%%%%%%%%%%%%%%%%%%%%%%%%%%%
-8115@%%%%%%%%%%%%%%%%%%%%%%%%%%%%%%%%%%%%%%%%%%%%%%%%%%%%%%%%%%%%%%%%%%%%%%%%%%
-8190@%%%%%%%%%%%%%%%%%%%%%%%%%%%%%%%%%%%%%%%%%%%%%%%%%%%%%%%%%%%%%%%%%%%%%%%%%%
-8265@%%%%%%%%%%%%%%%%%%%%%%%%%%%%%%%%%%%%%%%%%%%%%%%%%%%%%%%%%%%%%%%%%%%%%%%%%%
-8341@%%%%%%%%%%%%%%%%%%%%%%%%%%%%%%%%%%%%%%%%%%%%%%%%%%%%%%%%%%%%%%%%%%%%%%%%%%
-8416@%%%%%%%%%%%%%%%%%%%%%%%%%%%%%%%%%%%%%%%%%%%%%%%%%%%%%%%%%%%%%%%%%%%%%%%%%%
-8491@%%%%%%%%%%%%%%%%%%%%%%%%%%%%%%%%%%%%%%%%%%%%%%%%%%%%%%%%%%%%%%%%%%%%%%%%%%
-8567@%%%%%%%%%%%%%%%%%%%%%%%%%%%%%%%%%%%%%%%%%%%%%%%%%%%%%%%%%%%%%%%%%%%%%%%%%%
-8642@%%%%%%%%%%%%%%%%%%%%%%%%%%%%%%%%%%%%%%%%%%%%%%%%%%%%%%%%%%%%%%%%%%%%%%%%%%
-8717@%%%%%%%%%%%%%%%%%%%%%%%%%%%%%%%%%%%%%%%%%%%%%%%%%%%%%%%%%%%%%%%%%%%%%%%%%%
-8792@%%%%%%%%%%%%%%%%%%%%%%%%%%%%%%%%%%%%%%%%%%%%%%%%%%%%%%%%%%%%%%%%%%%%%%%%%%
-8868@%%%%%%%%%%%%%%%%%%%%%%%%%%%%%%%%%%%%%%%%%%%%%%%%%%%%%%%%%%%%%%%%%%%%%%%%%%
-8943@%%%%%%%%%%%%%%%%%%%%%%%%%%%%%%%%%%%%%%%%%%%%%%%%%%%%%%%%%%%%%%%%%%%%%%%%%%
-9018@%%%%%%%%%%%%%%%%%%%%%%%%%%%%%%%%%%%%%%%%%%%%%%%%%%%%%%%%%%%%%%%%%%%%%%%%%%
-9094@%%%%%%%%%%%%%%%%%%%%%%%%%%%%%%%%%%%%%%%%%%%%%%%%%%%%%%%%%%%%%%%%%%%%%%%%%%
-9169@%%%%%%%%%%%%%%%%%%%%%%%%%%%%%%%%%%%%%%%%%%%%%%%%%%%%%%%%%%%%%%%%%%%%%%%%%%
-9244@%%%%%%%%%%%%%%%%%%%%%%%%%%%%%%%%%%%%%%%%%%%%%%%%%%%%%%%%%%%%%%%%%%%%%%%%%%
-9319@%%%%%%%%%%%%%%%%%%%%%%%%%%%%%%%%%%%%%%%%%%%%%%%%%%%%%%%%%%%%%%%%%%%%%%%%%%
-9395@%%%%%%%%%%%%%%%%%%%%%%%%%%%%%%%%%%%%%%%%%%%%%%%%%%%%%%%%%%%%%%%%%%%%%%%%%%
-9470@%%%%%%%%%%%%%%%%%%%%%%%%%%%%%%%%%%%%%%%%%%%%%%%%%%%%%
-9524@ $$ checkpoint
##END=
##TITLE=Predicted peak list
##JCAMP-DX=5.01
##ORIGIN=UNKNOWN
##OWNER=UNKNOWN
##DATA TYPE=NMR PEAK TABLE
##DATA CLASS=PEAK TABLE
##BLOCK_ID=3
##CROSS REFERENCE=NMR SPECTRUM:BLOCK_ID=2
##DATE=22/02/07
##TIME=17:15:59
##LONG DATE=2022/02/07 17:15:59 
##.OBSERVE FREQUENCY=100
##.OBSERVE NUCLEUS=1H
##NPOINTS=87
##XUNITS=PPM
##YUNITS=ARBITRARY UNITS
##PEAK TABLE=(XY..XY)
(0.920000, 1.0152553333333334)
(0.920000, 1.0152553333333334)
(0.920000, 1.0152553333333334)
(0.880000, 1.0152553333333334)
(0.880000, 1.0152553333333334)
(0.880000, 1.0152553333333334)
(4.155000, 0.5076276666666667)
(4.225000, 0.5076276666666667)
(4.155000, 0.5076276666666667)
(4.225000, 0.5076276666666667)
(4.188500, 0.25381383333333335)
(4.241500, 0.25381383333333335)
(4.258500, 0.25381383333333335)
(4.311500, 0.25381383333333335)
(4.188500, 0.25381383333333335)
(4.241500, 0.25381383333333335)
(4.258500, 0.25381383333333335)
(4.311500, 0.25381383333333335)
(3.425000, 0.12690691666666667)
(3.449000, 0.12690691666666667)
(3.478000, 0.25381383333333335)
(3.502000, 0.25381383333333335)
(3.531000, 0.12690691666666667)
(3.555000, 0.12690691666666667)
(4.320000, 0.5076276666666667)
(4.420000, 0.5076276666666667)
(8.490000, 1.0152553333333334)
(8.490000, 1.0152553333333334)
(4.669000, 0.25381383333333335)
(4.731000, 0.25381383333333335)
(4.769000, 0.25381383333333335)
(4.831000, 0.25381383333333335)
(4.292000, 0.12690691666666667)
(4.316000, 0.12690691666666667)
(4.354000, 0.12690691666666667)
(4.378000, 0.12690691666666667)
(4.362000, 0.12690691666666667)
(4.386000, 0.12690691666666667)
(4.424000, 0.12690691666666667)
(4.448000, 0.12690691666666667)
(3.970000, 1.0152553333333334)
(3.296000, 0.12690691666666667)
(3.363000, 0.25381383333333335)
(3.430000, 0.25381383333333335)
(3.497000, 0.25381383333333335)
(3.564000, 0.12690691666666667)
(2.276000, 0.12690691666666667)
(2.343000, 0.25381383333333335)
(2.410000, 0.25381383333333335)
(2.477000, 0.25381383333333335)
(2.544000, 0.12690691666666667)
(2.183000, 0.25381383333333335)
(2.250000, 0.5076276666666667)
(2.317000, 0.25381383333333335)
(2.183000, 0.25381383333333335)
(2.250000, 0.5076276666666667)
(2.317000, 0.25381383333333335)
(3.068000, 0.12690691666666667)
(3.133000, 0.25381383333333335)
(3.198000, 0.12690691666666667)
(3.202000, 0.12690691666666667)
(3.267000, 0.25381383333333335)
(3.332000, 0.12690691666666667)
(3.048000, 0.12690691666666667)
(3.113000, 0.25381383333333335)
(3.178000, 0.12690691666666667)
(3.182000, 0.12690691666666667)
(3.247000, 0.25381383333333335)
(3.312000, 0.12690691666666667)
(2.745000, 0.25381383333333335)
(2.810000, 0.5076276666666667)
(2.875000, 0.25381383333333335)
(2.745000, 0.25381383333333335)
(2.810000, 0.5076276666666667)
(2.875000, 0.25381383333333335)
(2.181000, 0.25381383333333335)
(2.250000, 0.5076276666666667)
(2.319000, 0.25381383333333335)
(2.181000, 0.25381383333333335)
(2.250000, 0.5076276666666667)
(2.319000, 0.25381383333333335)
(2.181000, 0.25381383333333335)
(2.250000, 0.5076276666666667)
(2.319000, 0.25381383333333335)
(2.181000, 0.25381383333333335)
(2.250000, 0.5076276666666667)
(2.319000, 0.25381383333333335)
##END=
##TITLE=Predicted assignments
##JCAMP-DX=5.01
##ORIGIN=UNKNOWN
##OWNER=UNKNOWN
##DATA TYPE=NMR PEAK ASSIGNMENTS
##DATA CLASS=PEAK ASSIGNMENTS
##BLOCK_ID=4
##CROSS REFERENCE=STRUCTURE:BLOCK_ID=1
##DATE=22/02/07
##TIME=17:15:59
##LONG DATE=2022/02/07 17:15:59 
##.OBSERVE FREQUENCY=100
##.OBSERVE NUCLEUS=1H
##NPOINTS=87
##XUNITS=PPM
##PEAK ASSIGNMENTS=(XMA)
(0.920000, <s>, <56>)
(0.920000, <s>, <57>)
(0.920000, <s>, <58>)
(0.880000, <s>, <59>)
(0.880000, <s>, <60>)
(0.880000, <s>, <61>)
(4.190000, <d>, <62>)
(4.190000, <d>, <62>)
(4.190000, <d>, <63>)
(4.190000, <d>, <63>)
(4.250000, <dd>, <66>)
(4.250000, <dd>, <66>)
(4.250000, <dd>, <66>)
(4.250000, <dd>, <66>)
(4.250000, <dd>, <67>)
(4.250000, <dd>, <67>)
(4.250000, <dd>, <67>)
(4.250000, <dd>, <67>)
(3.490000, <td>, <68>)
(3.490000, <td>, <68>)
(3.490000, <td>, <68>)
(3.490000, <td>, <68>)
(3.490000, <td>, <68>)
(3.490000, <td>, <68>)
(4.370000, <d>, <69>)
(4.370000, <d>, <69>)
(8.490000, <s>, <70>)
(8.490000, <s>, <73>)
(4.750000, <dd>, <74>)
(4.750000, <dd>, <74>)
(4.750000, <dd>, <74>)
(4.750000, <dd>, <74>)
(4.370000, <ddd>, <76>)
(4.370000, <ddd>, <76>)
(4.370000, <ddd>, <76>)
(4.370000, <ddd>, <76>)
(4.370000, <ddd>, <76>)
(4.370000, <ddd>, <76>)
(4.370000, <ddd>, <76>)
(4.370000, <ddd>, <76>)
(3.970000, <s>, <79>)
(3.430000, <dt>, <82>)
(3.430000, <dt>, <82>)
(3.430000, <dt>, <82>)
(3.430000, <dt>, <82>)
(3.430000, <dt>, <82>)
(2.410000, <dt>, <83>)
(2.410000, <dt>, <83>)
(2.410000, <dt>, <83>)
(2.410000, <dt>, <83>)
(2.410000, <dt>, <83>)
(2.250000, <t>, <84>)
(2.250000, <t>, <84>)
(2.250000, <t>, <84>)
(2.250000, <t>, <85>)
(2.250000, <t>, <85>)
(2.250000, <t>, <85>)
(3.200000, <dt>, <87>)
(3.200000, <dt>, <87>)
(3.200000, <dt>, <87>)
(3.200000, <dt>, <87>)
(3.200000, <dt>, <87>)
(3.200000, <dt>, <87>)
(3.180000, <dt>, <88>)
(3.180000, <dt>, <88>)
(3.180000, <dt>, <88>)
(3.180000, <dt>, <88>)
(3.180000, <dt>, <88>)
(3.180000, <dt>, <88>)
(2.810000, <t>, <89>)
(2.810000, <t>, <89>)
(2.810000, <t>, <89>)
(2.810000, <t>, <90>)
(2.810000, <t>, <90>)
(2.810000, <t>, <90>)
(2.250000, <t>, <91>)
(2.250000, <t>, <91>)
(2.250000, <t>, <91>)
(2.250000, <t>, <92>)
(2.250000, <t>, <92>)
(2.250000, <t>, <92>)
(2.250000, <t>, <93>)
(2.250000, <t>, <93>)
(2.250000, <t>, <93>)
(2.250000, <t>, <94>)
(2.250000, <t>, <94>)
(2.250000, <t>, <94>)
##END=
##END=
