##TITLE=HMDB0000217, Simulated spectrum from predictions
##JCAMP-DX=4.24
##ORIGIN=NP-MRD
##OWNER=NP-MRD
##DATA TYPE=LINK
##DATE=22/02/07
##TIME=20:02:33
##LONG DATE=2022/02/07 20:02:33 
##TITLE=NADP
##JCAMP-CS=3.7
##ORIGIN=UNKNOWN
##OWNER=UNKNOWN
##DATE=22/02/07
##TIME=20:02:33
##BLOCK_ID=1
##CROSS REFERENCE=NMR PEAK ASSIGNMENTS:BLOCK_ID=4
##LONG DATE=2022/02/07 20:02:33 
##MOLFORM=C21 H28 N7 O17 P3
##ATOMLIST=
1 N 0
2 C 0
3 O 0
4 C 0
5 C 0
6 C 0
7 C 0
8 N 0
9 C 0
10 O 0
11 C 0
12 C 0
13 O 0
14 P 0
15 O 0
16 O 0
17 O 0
18 P 0
19 O 0
20 O 0
21 O 0
22 C 0
23 C 0
24 O 0
25 C 0
26 N 0
27 C 0
28 N 0
29 C 0
30 C 0
31 N 0
32 N 0
33 C 0
34 N 0
35 C 0
36 C 0
37 O 0
38 P 0
39 O 0
40 O 0
41 O 0
42 C 0
43 O 0
44 C 0
45 O 0
46 C 0
47 O 0
48 C 0
49 H 0
50 H 0
51 H 0
52 H 0
53 H 0
54 H 0
55 H 0
56 H 0
57 H 0
58 H 0
59 H 0
60 H 0
61 H 0
62 H 0
63 H 0
64 H 0
65 H 0
66 H 0
67 H 0
68 H 0
69 H 0
70 H 0
71 H 0
72 H 0
73 H 0
74 H 0
75 H 0
76 H 0
##BONDLIST=
1 2 S
2 3 D
2 4 S
4 5 D
5 6 S
6 7 D
7 8 S
8 9 S
9 10 S
10 11 S
11 12 S
12 13 S
13 14 S
14 15 D
14 16 S
14 17 S
17 18 S
18 19 D
18 20 S
18 21 S
21 22 S
22 23 S
23 24 S
24 25 S
25 26 S
26 27 S
27 28 D
28 29 S
29 30 D
30 31 S
30 32 S
32 33 D
33 34 S
34 35 D
25 36 S
36 37 S
37 38 S
38 39 D
38 40 S
38 41 S
36 42 S
42 43 S
11 44 S
44 45 S
44 46 S
46 47 S
8 48 D
48 4 S
46 9 S
42 23 S
35 26 S
35 29 S
1 49 S
1 50 S
5 51 S
6 52 S
7 53 S
9 54 S
11 55 S
12 56 S
12 57 S
20 58 S
22 59 S
22 60 S
23 61 S
25 62 S
27 63 S
31 64 S
31 65 S
33 66 S
36 67 S
40 68 S
41 69 S
42 70 S
43 71 S
44 72 S
45 73 S
46 74 S
47 75 S
48 76 S
##CHARGE=
+1 8
-1 16
##STEREOCENTER=
9 M 0
11 M 0
14 P 0
18 M 0
23 P 0
25 P 0
36 M 0
42 M 0
44 P 0
46 P 0
##$MOLFILE=HMDB0000217
     RDKit          3D
NADP
 76 80  0  0  0  0  0  0  0  0999 V2000
  -10.2455   -1.7030   -2.9146 N   0  0  0  0  0  0  0  0  0  0  0  0
   -9.2839   -2.2860   -2.0534 C   0  0  0  0  0  0  0  0  0  0  0  0
   -8.9879   -3.5100   -2.2955 O   0  0  0  0  0  0  0  0  0  0  0  0
   -8.6727   -1.5682   -0.9770 C   0  0  0  0  0  0  0  0  0  0  0  0
   -8.9324   -1.9821    0.3261 C   0  0  0  0  0  0  0  0  0  0  0  0
   -8.2938   -1.3622    1.3800 C   0  0  0  0  0  0  0  0  0  0  0  0
   -7.4033   -0.3311    1.0942 C   0  0  0  0  0  0  0  0  0  0  0  0
   -7.1324    0.0943   -0.1464 N   0  0  0  0  0  4  0  0  0  0  0  0
   -6.3119    1.2052   -0.4753 C   0  0  2  0  0  0  0  0  0  0  0  0
   -4.9590    1.1534   -0.4134 O   0  0  0  0  0  0  0  0  0  0  0  0
   -4.6639    1.5806    0.9610 C   0  0  2  0  0  0  0  0  0  0  0  0
   -3.8198    0.4759    1.4786 C   0  0  0  0  0  0  0  0  0  0  0  0
   -2.5100    0.7739    0.9305 O   0  0  0  0  0  0  0  0  0  0  0  0
   -1.8986   -0.4033   -0.0450 P   0  0  0  0  0  5  0  0  0  0  0  0
   -2.6913   -1.6542   -0.1682 O   0  0  0  0  0  0  0  0  0  0  0  0
   -2.0781    0.3346   -1.6820 O   0  0  0  0  0  1  0  0  0  0  0  0
   -0.2583   -0.6934    0.0507 O   0  0  0  0  0  0  0  0  0  0  0  0
    0.3140   -0.8708   -1.5508 P   0  0  0  0  0  5  0  0  0  0  0  0
   -0.0688    0.2721   -2.4268 O   0  0  0  0  0  0  0  0  0  0  0  0
   -0.3947   -2.2918   -2.1730 O   0  0  0  0  0  0  0  0  0  0  0  0
    2.0034   -1.0584   -1.5645 O   0  0  0  0  0  0  0  0  0  0  0  0
    2.4489   -1.1406   -0.2021 C   0  0  0  0  0  0  0  0  0  0  0  0
    3.9055   -1.3057   -0.1926 C   0  0  1  0  0  0  0  0  0  0  0  0
    4.6770   -0.2776   -0.7134 O   0  0  0  0  0  0  0  0  0  0  0  0
    5.9668   -0.3507   -0.1446 C   0  0  1  0  0  0  0  0  0  0  0  0
    6.2631    0.8162    0.5840 N   0  0  0  0  0  0  0  0  0  0  0  0
    5.3343    1.6179    1.2011 C   0  0  0  0  0  0  0  0  0  0  0  0
    5.9547    2.7381    1.6913 N   0  0  0  0  0  0  0  0  0  0  0  0
    7.2334    2.6872    1.3911 C   0  0  0  0  0  0  0  0  0  0  0  0
    8.2758    3.5863    1.6336 C   0  0  0  0  0  0  0  0  0  0  0  0
    8.1233    4.7881    2.3674 N   0  0  0  0  0  0  0  0  0  0  0  0
    9.4955    3.2366    1.1540 N   0  0  0  0  0  0  0  0  0  0  0  0
    9.6932    2.0635    0.4692 C   0  0  0  0  0  0  0  0  0  0  0  0
    8.6536    1.2326    0.2661 N   0  0  0  0  0  0  0  0  0  0  0  0
    7.4328    1.4820    0.6960 C   0  0  0  0  0  0  0  0  0  0  0  0
    6.0409   -1.6697    0.5640 C   0  0  2  0  0  0  0  0  0  0  0  0
    6.0943   -2.6975   -0.4572 O   0  0  0  0  0  0  0  0  0  0  0  0
    7.5593   -2.7574   -1.2090 P   0  0  0  0  0  5  0  0  0  0  0  0
    7.3683   -2.0171   -2.5461 O   0  0  0  0  0  0  0  0  0  0  0  0
    7.9577   -4.3422   -1.6561 O   0  0  0  0  0  0  0  0  0  0  0  0
    8.8310   -2.0690   -0.3914 O   0  0  0  0  0  0  0  0  0  0  0  0
    4.5841   -1.8137    1.0640 C   0  0  2  0  0  0  0  0  0  0  0  0
    4.2595   -3.1941    1.1542 O   0  0  0  0  0  0  0  0  0  0  0  0
   -5.6969    2.3615    1.4734 C   0  0  1  0  0  0  0  0  0  0  0  0
   -5.3031    3.7696    1.6218 O   0  0  0  0  0  0  0  0  0  0  0  0
   -6.7038    2.4745    0.3127 C   0  0  1  0  0  0  0  0  0  0  0  0
   -6.3848    3.5516   -0.5049 O   0  0  0  0  0  0  0  0  0  0  0  0
   -7.7869   -0.5491   -1.1706 C   0  0  0  0  0  0  0  0  0  0  0  0
  -11.0986   -1.3008   -2.5100 H   0  0  0  0  0  0  0  0  0  0  0  0
  -10.0582   -1.6699   -3.9091 H   0  0  0  0  0  0  0  0  0  0  0  0
   -9.6756   -2.7774    0.5200 H   0  0  0  0  0  0  0  0  0  0  0  0
   -8.5029   -1.6853    2.4182 H   0  0  0  0  0  0  0  0  0  0  0  0
   -6.8645    0.1237    1.9142 H   0  0  0  0  0  0  0  0  0  0  0  0
   -6.5420    1.4944   -1.5661 H   0  0  0  0  0  0  0  0  0  0  0  0
   -3.8129    2.3779    0.6441 H   0  0  0  0  0  0  0  0  0  0  0  0
   -4.0673   -0.4936    0.9788 H   0  0  0  0  0  0  0  0  0  0  0  0
   -3.7500    0.3318    2.5403 H   0  0  0  0  0  0  0  0  0  0  0  0
   -0.2817   -2.9505   -1.4194 H   0  0  0  0  0  0  0  0  0  0  0  0
    2.1117   -0.1599    0.2124 H   0  0  0  0  0  0  0  0  0  0  0  0
    1.9772   -2.0227    0.2279 H   0  0  0  0  0  0  0  0  0  0  0  0
    4.0955   -2.1681   -0.9732 H   0  0  0  0  0  0  0  0  0  0  0  0
    6.6460   -0.4455   -1.0537 H   0  0  0  0  0  0  0  0  0  0  0  0
    4.2837    1.3564    1.2621 H   0  0  0  0  0  0  0  0  0  0  0  0
    7.7006    4.7797    3.3102 H   0  0  0  0  0  0  0  0  0  0  0  0
    8.4347    5.6835    1.9780 H   0  0  0  0  0  0  0  0  0  0  0  0
   10.6786    1.9024    0.1470 H   0  0  0  0  0  0  0  0  0  0  0  0
    6.7653   -1.8047    1.2930 H   0  0  0  0  0  0  0  0  0  0  0  0
    8.5112   -4.3728   -2.4902 H   0  0  0  0  0  0  0  0  0  0  0  0
    8.7464   -2.2579    0.5829 H   0  0  0  0  0  0  0  0  0  0  0  0
    4.3694   -1.3139    1.9730 H   0  0  0  0  0  0  0  0  0  0  0  0
    4.6730   -3.6639    0.3753 H   0  0  0  0  0  0  0  0  0  0  0  0
   -6.2057    2.1967    2.4355 H   0  0  0  0  0  0  0  0  0  0  0  0
   -4.6849    3.8393    2.3840 H   0  0  0  0  0  0  0  0  0  0  0  0
   -7.7270    2.5067    0.5999 H   0  0  0  0  0  0  0  0  0  0  0  0
   -6.0900    4.3444   -0.0314 H   0  0  0  0  0  0  0  0  0  0  0  0
   -7.6205   -0.2469   -2.1898 H   0  0  0  0  0  0  0  0  0  0  0  0
  1  2  1  0
  2  3  2  0
  2  4  1  0
  4  5  2  0
  5  6  1  0
  6  7  2  0
  7  8  1  0
  8  9  1  0
  9 10  1  0
 10 11  1  0
 11 12  1  0
 12 13  1  0
 13 14  1  0
 14 15  2  0
 14 16  1  0
 14 17  1  0
 17 18  1  0
 18 19  2  0
 18 20  1  0
 18 21  1  0
 21 22  1  0
 22 23  1  0
 23 24  1  0
 24 25  1  0
 25 26  1  0
 26 27  1  0
 27 28  2  0
 28 29  1  0
 29 30  2  0
 30 31  1  0
 30 32  1  0
 32 33  2  0
 33 34  1  0
 34 35  2  0
 25 36  1  0
 36 37  1  0
 37 38  1  0
 38 39  2  0
 38 40  1  0
 38 41  1  0
 36 42  1  0
 42 43  1  0
 11 44  1  0
 44 45  1  0
 44 46  1  0
 46 47  1  0
  8 48  2  0
 48  4  1  0
 46  9  1  0
 42 23  1  0
 35 26  1  0
 35 29  1  0
  1 49  1  0
  1 50  1  0
  5 51  1  0
  6 52  1  0
  7 53  1  0
  9 54  1  6
 11 55  1  6
 12 56  1  0
 12 57  1  0
 20 58  1  0
 22 59  1  0
 22 60  1  0
 23 61  1  6
 25 62  1  6
 27 63  1  0
 31 64  1  0
 31 65  1  0
 33 66  1  0
 36 67  1  1
 40 68  1  0
 41 69  1  0
 42 70  1  1
 43 71  1  0
 44 72  1  1
 45 73  1  0
 46 74  1  1
 47 75  1  0
 48 76  1  0
M  CHG  2   8   1  16  -1
M  END

##END=
##TITLE=Predicted spectrum
##JCAMP-DX=5.01
##ORIGIN=UNKNOWN
##OWNER=UNKNOWN
##DATA TYPE=NMR SPECTRUM
##BLOCK_ID=2
##CROSS REFERENCE=NMR PEAK TABLE:BLOCK_ID=3
##DATE=22/02/07
##TIME=20:02:33
##LONG DATE=2022/02/07 20:02:33 
##.OBSERVE FREQUENCY=100
##.OBSERVE NUCLEUS=1H
##.SHIFT REFERENCE=INTERNAL,nan,56172.86,0
##XUNITS=PPM
##FIRSTX=12.0
##LASTX=-2.0
##MINX=-2.0
##MAXX=12.0
##XFACTOR=0.0002099999999991553
##NPOINTS=65536
##YUNITS=ARBITRARY UNITS
##FIRSTY=2.09193e-05
##LASTY=9.3522e-06
##MINY=9.3522e-06
##MAXY=2.000378
##YFACTOR=6.104855494857631e-05
##XYDATA=(X++(Y..Y)), XYDATA $$ DIF
57143@%%%%%%%%%%%%%%%%%%%%%%%%%%%%%%%%%%%%%%%%%%%%%%%%%%%%%%%%%%%%%%%%%%%%%%%%%%
57068@%%%%%%%%%%%%%%%%%%%%%%%%%%%%%%%%%%%%%%%%%%%%%%%%%%%%%%%%%%%%%%%%%%%%%%%%%%
56992@%%%%%%%%%%%%%%%%%%%%%%%%%%%%%%%%%%%%%%%%%%%%%%%%%%%%%%%%%%%%%%%%%%%%%%%%%%
56917@%%%%%%%%%%%%%%%%%%%%%%%%%%%%%%%%%%%%%%%%%%%%%%%%%%%%%%%%%%%%%%%%%%%%%%%%%%
56842@%%%%%%%%%%%%%%%%%%%%%%%%%%%%%%%%%%%%%%%%%%%%%%%%%%%%%%%%%%%%%%%%%%%%%%%%%%
56766@%%%%%%%%%%%%%%%%%%%%%%%%%%%%%%%%%%%%%%%%%%%%%%%%%%%%%%%%%%%%%%%%%%%%%%%%%%
56691@%%%%%%%%%%%%%%%%%%%%%%%%%%%%%%%%%%%%%%%%%%%%%%%%%%%%%%%%%%%%%%%%%%%%%%%%%%
56616@%%%%%%%%%%%%%%%%%%%%%%%%%%%%%%%%%%%%%%%%%%%%%%%%%%%%%%%%%%%%%%%%%%%%%%%%%%
56541@%%%%%%%%%%%%%%%%%%%%%%%%%%%%%%%%%%%%%%%%%%%%%%%%%%%%%%%%%%%%%%%%%%%%%%%%%%
56465@%%%%%%%%%%%%%%%%%%%%%%%%%%%%%%%%%%%%%%%%%%%%%%%%%%%%%%%%%%%%%%%%%%%%%%%%%%
56390@%%%%%%%%%%%%%%%%%%%%%%%%%%%%%%%%%%%%%%%%%%%%%%%%%%%%%%%%%%%%%%%%%%%%%%%%%%
56315@%%%%%%%%%%%%%%%%%%%%%%%%%%%%%%%%%%%%%%%%%%%%%%%%%%%%%%%%%%%%%%%%%%%%%%%%%%
56240@%%%%%%%%%%%%%%%%%%%%%%%%%%%%%%%%%%%%%%%%%%%%%%%%%%%%%%%%%%%%%%%%%%%%%%%%%%
56164@%%%%%%%%%%%%%%%%%%%%%%%%%%%%%%%%%%%%%%%%%%%%%%%%%%%%%%%%%%%%%%%%%%%%%%%%%%
56089@%%%%%%%%%%%%%%%%%%%%%%%%%%%%%%%%%%%%%%%%%%%%%%%%%%%%%%%%%%%%%%%%%%%%%%%%%%
56014@%%%%%%%%%%%%%%%%%%%%%%%%%%%%%%%%%%%%%%%%%%%%%%%%%%%%%%%%%%%%%%%%%%%%%%%%%%
55938@%%%%%%%%%%%%%%%%%%%%%%%%%%%%%%%%%%%%%%%%%%%%%%%%%%%%%%%%%%%%%%%%%%%%%%%%%%
55863@%%%%%%%%%%%%%%%%%%%%%%%%%%%%%%%%%%%%%%%%%%%%%%%%%%%%%%%%%%%%%%%%%%%%%%%%%%
55788@%%%%%%%%%%%%%%%%%%%%%%%%%%%%%%%%%%%%%%%%%%%%%%%%%%%%%%%%%%%%%%%%%%%%%%%%%%
55713@%%%%%%%%%%%%%%%%%%%%%%%%%%%%%%%%%%%%%%%%%%%%%%%%%%%%%%%%%%%%%%%%%%%%%%%%%%
55637@%%%%%%%%%%%%%%%%%%%%%%%%%%%%%%%%%%%%%%%%%%%%%%%%%%%%%%%%%%%%%%%%%%%%%%%%%%
55562@%%%%%%%%%%%%%%%%%%%%%%%%%%%%%%%%%%%%%%%%%%%%%%%%%%%%%%%%%%%%%%%%%%%%%%%%%%
55487@%%%%%%%%%%%%%%%%%%%%%%%%%%%%%%%%%%%%%%%%%%%%%%%%%%%%%%%%%%%%%%%%%%%%%%%%%%
55411@%%%%%%%%%%%%%%%%%%%%%%%%%%%%%%%%%%%%%%%%%%%%%%%%%%%%%%%%%%%%%%%%%%%%%%%%%%
55336@%%%%%%%%%%%%%%%%%%%%%%%%%%%%%%%%%%%%%%%%%%%%%%%%%%%%%%%%%%%%%%%%%%%%%%%%%%
55261@%%%%%%%%%%%%%%%%%%%%%%%%%%%%%%%%%%%%%%%%%%%%%%%%%%%%%%%%%%%%%%%%%%%%%%%%%%
55186@%%%%%%%%%%%%%%%%%%%%%%%%%%%%%%%%%%%%%%%%%%%%%%%%%%%%%%%%%%%%%%%%%%%%%%%%%%
55110@%%%%%%%%%%%%%%%%%%%%%%%%%%%%%%%%%%%%%%%%%%%%%%%%%%%%%%%%%%%%%%%%%%%%%%%%%%
55035@%%%%%%%%%%%%%%%%%%%%%%%%%%%%%%%%%%%%%%%%%%%%%%%%%%%%%%%%%%%%%%%%%%%%%%%%%%
54960@%%%%%%%%%%%%%%%%%%%%%%%%%%%%%%%%%%%%%%%%%%%%%%%%%%%%%%%%%%%%%%%%%%%%%%%%%%
54885@%%%%%%%%%%%%%%%%%%%%%%%%%%%%%%%%%%%%%%%%%%%%%%%%%%%%%%%%%%%%%%%%%%%%%%%%%%
54809@%%%%%%%%%%%%%%%%%%%%%%%%%%%%%%%%%%%%%%%%%%%%%%%%%%%%%%%%%%%%%%%%%%%%%%%%%%
54734@%%%%%%%%%%%%%%%%%%%%%%%%%%%%%%%%%%%%%%%%%%%%%%%%%%%%%%%%%%%%%%%%%%%%%%%%%%
54659@%%%%%%%%%%%%%%%%%%%%%%%%%%%%%%%%%%%%%%%%%%%%%%%%%%%%%%%%%%%%%%%%%%%%%%%%%%
54583@%%%%%%%%%%%%%%%%%%%%%%%%%%%%%%%%%%%%%%%%%%%%%%%%%%%%%%%%%%%%%%%%%%%%%%%%%%
54508@%%%%%%%%%%%%%%%%%%%%%%%%J%%%%%%%%%%%%%%%%%%%%%%%%%%%%%%%%%%%%%%%%%%%%%%%%%
54433A%%%%%%%%%%%%%%%%%%%%%%%%%%%%%%%%%%%%%%%%%%%%%%%%%%%%%%%%%%%%%%%%%%%%%%%%%%
54358A%%%%%%%%%%%%%%%%%%%%%%%%%%%%%%%%%%%%%%%%%%%%%%%%%%%%%%%%%%%%%%%%%%%%%%%%%%
54282A%%%%%%%%%%%%%%%%%%%%%%%%%%%%%%%%%%%%%%%%%%%%%%%%%%%%%%%%%%%%%%%%%%%%%%%%%%
54207A%%%%%%%%%%%%%%%%%%%%%%%%%%%%%%%%%%%%%%%%%%%%%%%%%%%%%%%%%%%%%%%%%%%%%%%%%%
54132A%%%%%%%%%%%%%%%%%%%%%%%%%%%%%%%%%%%%%%%%%%%%%%%%%%%%%%%%%%%%%%%%%%%%%%%%%%
54056A%%%%%%%%%%%%%%%%%%%%%%%%%%%%%%%%%%%%%%%%%%%%%%%%%%%%%%%%%%%%%%%%%%%%%%%%%%
53981A%%%%%%%%%%%%%%%%%%%%%%%%%%%%%%%%%%%%%%%%%%%%%%%%%%%%%%%%%%%%%%%%%%%%%%%%%%
53906A%%%%%%%%%%%%%%%%%%%%%%%%%%%%%%%%%%%%%%%%%%%%%%%%%%%%%%%%%%%%%%%%%%%%%%%%%%
53831A%%%%%%%%%%%%%%%%%%%%%%%%%%%%%%%%%%%%%%%%%%%%%%%%%%%%%%%%%%%%%%%%%%%%%%%%%%
53755A%%%%%%%%%%%%%%%%%%%%%%%%%%%%%%%%%%%%%%%%%%%%%%%%%%%%%%%%%%%%%%%%%%%%%%%%%%
53680A%%%%%%%%%%%%%%%%%%%%%%%%%%%%%%%%%%%%%%%%%%%%%%%%%%%%%%%%%%%%%%%%%%%%%%%%%%
53605A%%%%%%%%%%%%%%%%%%%%%%%%%%%%%%%%%%%%%%%%%%%%%%%%%%%%%%%%%%%%%%%%%%%%%%%%%%
53530A%%%%%%%%%%%%%%%%%%%%%%%%%%%%%%%%%%%%%%%%%%%%%%%%%%%%%%%%%%%%%%%%%%%%%%%%%%
53454A%%%%%%%%%%%%%%%%%%%%%%%%%%%%%%%%%%%%%%%%%%%%%%%%%%%%%%%%%%%%%%%%%%%%%%%%%%
53379A%%%%%%%%%%%%%%%%%%%%%%%%%%%%%%%%%%%%%%%%%%%%%%%%%%%%%%%%%%%%%%%%%%%%%%%%%%
53304A%%%%%%%%%%%%%%%%%%%%%%%%%%%%%%%%%%%%%%%%%%%%%%%%%%%%%%%%%%%%%%%%%%%%%%%%%%
53228A%%%%%%%%%%%%%%%%%%%%%%%%%%%%%%%%%%%%%%%%%%%%%%%%%%%%%%%%%%%%%%%%%%%%%%%%%%
53153A%%%%%%%%%%%%%%%%%%%%%%%%%%%%%%%%%%%%%%%%%%%%%%%%%%%%%%%%%%%%%%%%%%%%%%%%%%
53078A%%%%%%%%%%%%%%%%%%%%%%%%%%%%%%%%%%%%%%%%%%%%%%%%%%%%%%%%%%%%%%%%%%%%%%%%%%
53003A%%%%%%%%%%%%%%%%%%%%%%%%%%%%%%%%%%%%%%%%%%%%%%%%%%%%%%%%%%%%%%%%%%%%%%%%%%
52927A%%%%%%%%%%%%%%%%%%%%%%%%%%%%%%%%%%%%%%%%%%%%%%%%%%%%%%%%%%%%%%%%%%%%%%%%%%
52852A%%%%%%%%%%%%%%%%%%%%%%%%%%%%%%%%%%%%%%%%%%%%%%%%%%%%%%%%%%%%%%%%%%%%%%%%%%
52777A%%%%%%%%%%%%%%%%%%%%%%%%%%%%%%%%%%%%%%%%%%%%%%%%%%%%%%%%%%%%%%%%%%%%%%%%%%
52701A%%%%%%%%%%%%%%%%%%%%%%%%%%%%%%%%%%%%%%%%%%%%%%%%%%%%%%%%%%%%%%%%%%%%%%%%%%
52626A%%%%%%%%%%%%%%%%%%%%%%%%%%%%%%%%%%%%%%%%%%%%%%%%%%%%%%%%%%%%%%%%%%%%%%%%%%
52551A%%%%%%%%%%%%%%%%%%%%%%%%%%%%%%%%%%%%%%%%%%%%%%%%%%%%%%%%%%%%%%%%%%%%%%%%%%
52476A%%%%%%%%%%%%%%%%%%%%%%%%%%%%%%%%%%%%%%%%%%%%%%%%%%%%%%%%%%%%%%%%%%%%%%%%%%
52400A%%%%%%%%%%%%%%%%%%%%%%%%%%%%%%%%%%%%%%%%%%%%%%%%%%%%%%%%%%%%%%%%%%%%%%%%%%
52325A%%%%%%%%%%%%%%%%%%%%%%%%%%%%%%%%%%%%%%%%%%%%%%%%%%%%%%%%%%%%%%%%%%%%%%%%%%
52250A%%%%%%%%%%%%%%%%%%%%%%%%%%%%%%%%%%%%%%%%%%%%%%%%%%%%%%%%%%%%%%%%%%%%%%%%%%
52175A%%%%%%%%%%%%%%%%%%%%%%%%%%%%%%%%%%%%%%%%%%%%%%%%%%%%%%%%%%%%%%%%%%%%%%%%%%
52099A%%%%%%%%%%%%%%%%%%%%%%%%%%%%%%%%%%%%%%%%%%%%%%%%%%%%%%%%%%%%%%%%%%%%%%%%%%
52024A%%%%%%%%%%%%%%%%%%%%%%%%%%%%%%%%%%%%%%%%%%%%%%%%%%%%%%%%%%%%%%%%%%%%%%%%%%
51949A%%%%%%%%%%%%%%%%%%%%%%%%%%%%%%%%%%%%%%%%%%%%%%%%%%%%%%%%%%%%%%%%%%%%%%%%%%
51873A%%%%%%%%%%%%%%%%%%%%%%%%%%%%%%%%%%%%%%%%%%%%%%%%%%%%%%%%%%%%%%%%%%%%%%%%%%
51798A%%%%%%%%%%%%%%%%%%%%%%%%%%%%%%%%%%%%%%%%%%%%%%%%%%%%%%%%%%%%%%%%%%%%%%%%%%
51723A%%%%%%%%%%%%%%%%%%%%%%%%%%%%%%%%%%%%%%%%%%%%%%%%%%%%%%%%%%%%%%%%%%%%%%%%%%
51648A%%%%%%%%%%%%%%%%%%%%%%%%%%%%%%%%%%%%%%%%%%%%%%%%%%%%%%%%%%%%%%%%%%%%%%%%%%
51572A%%%%%%%%%%%%%%%%%%%%%%%%%%%%%%%%%%%%%%%%%%%%%%%%%%%%%%%%%%%%%%%%%%%%%%%%%%
51497A%%%%%%%%%%%%%%%%%%%%%%%%%%%%%%%%%%%%%%%%%%%%%%%%%%%%%%%%%%%%%%%%%%%%%%%%%%
51422A%%%%%%%%%%%%%%%%%%%%%%%%%%%%%%%%%%%%%%%%%%%%%%%%%%%%%%%%%%%%%%%%%%%%%%%%%%
51346A%%%%%%%%%%%%%%%%%%%%%%%%%%%%%%%%%%%%%%%%%%%%%%%%%%%%%%%%%%%%%%%%%%%%%%%%%%
51271A%%%%%%%%%%%%%%%%%%%%%%%%%%%%%%%%%%%%%%%%%%%%%%%%%%%%%%%%%%%%%%%%%%%%%%%%%%
51196A%%%%%%%%%%%%%%%%%%%%%%%%%%%%%%%%%%%%%%%%%%%%%%%%%%%%%%%%%%%%%%%%%%%%%%%%%%
51121A%%%%%%%%%%%%%%%%%%%%%%%%%%%%%%%%%%%%%%%%%%%%%%%%%%%%%%%%%%%%%%%%%%%%%%%%%%
51045A%%%%%%%%%%%%%%%%%%%%%%%%%%%%%%%%%%%%%%%%%%%%%%%%%%%%%%%%%%%%%%%%%%%%%%%%%%
50970A%%%%%%%%%%%%%%%%%%%%%%%%%%%%%%%%%%%%%%%%%%%%%%%%%%%%%%%%%%%%%%%%%%%%%%%%%%
50895A%%%%%%%%%%%%%%%%%%%%%%%%%%%%%%%%%%%%%%%%%%%%%%%%%%%%%%%%%%%%%%%%%%%%%%%%%%
50820A%%%%%%%%%%%%%%%%%%%%%%%%%%%%%%%%%%%%%%%%%%%%%%%%%%%%%%%%%%%%%%%%%%%%%%%%%%
50744A%%%%%%%%%%%%%%%%%%%%%%%%%%%%%%%%%%%%%%%%%%%%%%%%%%%%%%%%%%%%%%%%%%%%%%%%%%
50669A%%%%%%%%%%%%%%%%%%%%%%%%%%%%%%%%%%%%%%%%%%%%%%%%%%%%%%%%%%%%%%%%%%%%%%%%%%
50594A%%%%%%%%%%%%%%%%%%%%%%%%%%%%%%%%%%%%%%%%%%%%%%%%%%%%%%%%%%%%%%%%%%%%%%%%%%
50518A%%%%%%%%%%%%%%%%%%%%%%%%%%%%%%%%%%%%%%%%%%%%%%%%%%%%%%%%%%%%%%%%%%%%%%%%%%
50443A%%%%%%%%%%%%%%%%%%%%%%%%%%%%%%%%%%%%%%%%%%%%%%%%%%%%%%%%%%%%%%%%%%%%%%%%%%
50368A%%%%%%%%%%%%%%%%%%%%%%%%%%%%%%%%%%%%%%%%%%%%%%%%%%%%%%%%%%%%%%%%%%%%%%%%%%
50293A%%%%%%%%%%%%%%%%%%%%%%%%%%%%%%%%%%%%%%%%%%%%%%%%%%%%%%%%%%%%%%%%%%%%%%%%%%
50217A%%%%%%%%%%%%%%%%%%%%%%%%%%%%%%%%%%%%%%%%%%%%%%%%%%%%%%%%%%%%%%%%%%%%%%%%%%
50142A%%%%%%%%%%%%%%%%%%%%%%%%%%%%%%%%%%%%%%%%%%%%%%%%%%%%%%%%%%%%%%%%%%%%%%%%%%
50067A%%%%%%%%%%%%%%%%%%%%%%%%%%%%%%%%%%%%%%%%%%%%%%%%%%%%%%%%%%%%%%%%%%%%%%%%%%
49991A%%%%%%%%%%%%%%%%%%%%%%%%%%%%%%%%%%%%%%%%%%%%%%%%%%%%%%%%%%%%%%%%%%%%%%%%%%
49916A%%%%%%%%%%%%%%%%%%%%%J%%%%%%%%%%%%%%%%%%%%%%%%%%%%%%%%%%%%%%%%%%%%%%%%%%%%
49841B%%%%%%%%%%%%%%%%%%%%%%%%%%%%%%%%%%%%%%%%%%%%%%%%%%%%%%%%%%%%%%%%%%%%%%%%%%
49766B%%%%%%%%%%%%%%%%%%%%%%%%%%%%%%%%%%%%%%%%%%%%%%%%%%%%%%%%%%%%%%%%%%%%%%%%%%
49690B%%%%%%%%%%%%%%%%%%%%%%%%%%%%%%%%%%%%%%%%%%%%%%%%%%%%%%%%%%%%%%%%%%%%%%%%%%
49615B%%%%%%%%%%%%%%%%%%%%%%%%%%%%%%%%%%%%%%%%%%%%%%%%%%%%%%%%%%%%%%%%%%%%%%%%%%
49540B%%%%%%%%%%%%%%%%%%%%%%%%%%%%%%%%%%%%%%%%%%%%%%%%%%%%%%%%%%%%%%%%%%%%%%%%%%
49465B%%%%%%%%%%%%%%%%%%%%%%%%%%%%%%%%%%%%%%%%%%%%%%%%%%%%%%%%%%%%%%%%%%%%%%%%%%
49389B%%%%%%%%%%%%%%%%%%%%%%%%%%%%%%%%%%%%%%%%%%%%%%%%%%%%%%%%%%%%%%%%%%%%%%%%%%
49314B%%%%%%%%%%%%%%%%%%%%%%%%%%%%%%%%%%%%%%%%%%%%%%%%%%%%%%%%%%%%%%%%%%%%%%%%%%
49239B%%%%%%%%%%%%%%%%%%%%%%%%%%%%%%%%%%%%%%%%%%%%%%%%%%%%%%%%%%%%%%%%%%%%%%%%%%
49163B%%%%%%%%%%%%%%%%%%%%%%%%%%%%%%%%%%%%%%%%%%%%%%%%%%%%%%%%%%%%%%%%%%%%%%%%%%
49088B%%%%%%%%%%%%%%%%%%%%%%%%%%%%%%%%%%%%%%%%%%%%%%%%%%%%%%%%%%%%%%%%%%%%%%%%%%
49013B%%%%%%%%%%%%%%%%%%%%%%%%%%%%%%%%%%%%%%%%%%%%%%%%%%%%%%%%%%%%%%%%%%%%%%%%%%
48938B%%%%%%%%%%%%%%%%%%%%%%%%%%%%%%%%%%%%%%%%%%%%%%%%%%%%%%%%%%%%%%%%%%%%%%%%%%
48862B%%%%%%%%%%%%%%%%%%%%%%%%%%%%%%%%%%%%%%%%%%%%%%%%%%%%%%%%%%%%%%%%%%%%%%%%%%
48787B%%%%%%%%%%%%%%%%%%%%%%%%%%%%%%%%%%%%%%%%%%%%J%%%%%%%%%%%%%%%%%%%%%%%%%%%%%
48712C%%%%%%%%%%%%%%%%%%%%%%%%%%%%%%%%%%%%%%%%%%%%%%%%%%%%%%%%%%%%%%%%%%%%%%%%%%
48636C%%%%%%%%%%%%%%%%%%%%%%%%%%%%%%%%%%%%%%%%%%%%%%%%%%%%%%%%%%%%%%%%%%%%%%%%%%
48561C%%%%%%%%%%%%%%%%%%%%%%%%%%%%%%%%%%%%%%%%%%%%%%%%%%%%%%%%%%%%%%%%%%%%%%%%%%
48486C%%%%%%%%%%%%%%%%%%%%%%%%%%%%%%%%%%%%%%%%%%%%%%%%%%%%%%%%%%%%%%%%%%%%%%%%%%
48411C%%%%%%%%%%%%%%%%%%%%%%%%%%%%%%%%%%%%%%%%%%%%%%%%%%%%%%%%%%%%%%%%%%%%%%%%%%
48335C%%%%%%%%%%%%%%%%%%%%%%%%%%%%%%%%%%%%%%%%%%%%%%%%%%%%%%%%%%%%%%%%%%%%%%%%%%
48260C%%%%%%%%%%%%%%%%%%%%%%%%%%%%%%%%%%%%%%%%%%%%%%%%%%%%%%%%%%%%%%%%%%%%%%%%%%
48185C%%%%J%%%%%%%%%%%%%%%%%%%%%%%%%%%%%%%%%%%%%%%%%%%%%%%%%%%%%%%%%%%%%%%%%%%%%
48110D%%%%%%%%%%%%%%%%%%%%%%%%%%%%%%%%%%%%%%%%%%%%%%%%%%%%%%%%%%%%%%%%%%%%%%%%%%
48034D%%%%%%%%%%%%%%%%%%%%%%%%%%%%%%%%%%%%%%%%%%%%%%%%%%%%%%%%%%%%%%%%%%%%%%%%%%
47959D%%%%%%%%%%%%%%%%%%%%%%%%%%%%%%%%%%%%%%%%%%%%%%%%%%%%%%%%%%%%%%%%%%%%%%%%%%
47884D%%%%%%%%%%%%%%%%%%%%%%%%%%%%%%%%%%%%%%%%%%%%%J%%%%%%%%%%%%%%%%%%%%%%%%%%%%
47808E%%%%%%%%%%%%%%%%%%%%%%%%%%%%%%%%%%%%%%%%%%%%%%%%%%%%%%%%%%%%%%%%%%%%%%%%%%
47733E%%%%%%%%%%%%%%%%%%%%%%%%%%%%%%%%%%%%%%%%%%%%%%%%%%%%%%%%%%%%%%%%%%%%%%%%%%
47658E%%%%%%%%%%%%%%%%%%%%%%%%%%%%%%%%%%%%%%%%%%%%%%%%%%%%%%%J%%%%%%%%%%%%%%%%%%
47583F%%%%%%%%%%%%%%%%%%%%%%%%%%%%%%%%%%%%%%%%%%%%%%%%%%%%%%%%%%%%%%%%%%%%%%%%%%
47507F%%%%%%%%%%%%%%%%%%%%%%%%%%%%%%%%%%%%%%%%%%%%%%%%%%%%%%%%%%%%%%%%%%%%%%%%%%
47432F%%%%%J%%%%%%%%%%%%%%%%%%%%%%%%%%%%%%%%%%%%%%%%%%%%%%%%%%%%%%%%%%%%%%%%%%%%
47357G%%%%%%%%%%%%%%%%%%%%%%%%%%%%%%%%%%%%%%%%%%%%%%%%%%%%%%%%%%%%%%%%J%%%%%%%%%
47281H%%%%%%%%%%%%%%%%%%%%%%%%%%%%%%%%%%%%%%%%%%%%%%%%%%%%%%%%%%%%%%%%%%%%%%%%%%
47206H%%%%%%%%%%%%%%%%%%%%%%%%J%%%%%%%%%%%%%%%%%%%%%%%%%%%%%%%%%%%%%%%%%%%%%%%%%
47131I%%%%%%%%%%%%%%%%%%%%%%%%%%%%%%%%%%%%%%J%%%%%%%%%%%%%%%%%%%%%%%%%%%%%%%%%%%
47056A0%%%%%%%%%%%%%%%%%%%%%%%%%%%%%%%%%%%%%%%J%%%%%%%%%%%%%%%%%%%%%%%%%%%%%%%%%
46981A1%%%%%%%%%%%%%%%%%%%%%%%%%%%%%%%J%%%%%%%%%%%%%%%%%%%%%%%%%%%%%%%%%%%%%%%%%
46907A2%%%%%%%%%%%%%%J%%%%%%%%%%%%%%%%%%%%%%%%%%%%%%%%%%%%%%%%%%%%%%%%J%%%%%%%%%
46833A4%%%%%%%%%%%%%%%%%%%%%%%%%%%%%%%%%%J%%%%%%%%%%%%%%%%%%%%%%%%%%%%%%%%%%%%%%
46759A5%J%%%%%%%%%%%%%%%%%%%%%%%%%%%%%%%%%%J%%%%%%%%%%%%%%%%%%%%%%%%%%%%%%%J%%%%
46684A8%%%%%%%%%%%%%%%%%%%%%%%%%J%%%%%%%%%%%%%%%%%%%%%%%%%%J%%%%%%%%%%%%%%%%%%%%
46610B0%%%%J%%%%%%%%%%%%%%%%%%%%%%J%%%%%%%%%%%%%%%%%%%%%J%%%%%%%%%%%%%%%%%%%J%%%
46536B4%%%%%%%%%%%%%%%J%%%%%%%%%%%%%%%%J%%%%%%%%%%%%%%%%J%%%%%%%%%%%%%%%J%%%%%%%
46462B8%%%%%%J%%%%%%%%%%%%%J%%%%%%%%%%%%%J%%%%%%%%%%%J%%%%%%%%%%%J%%%%%%%%%%%J%%
46387C4%%%%%%%%J%%%%%%%%%J%%%%%%%%%J%%%%%%%%%J%%%%%%%%J%%%%%%%%J%%%%%%%J%%%%%%%J
46313D2%%%%%%%J%%%%%%%J%%%%%%J%%%%%%J%%%%%%J%%%%%J%%%%%%J%%%%%J%%%%%J%%%%%J%%%%J
46239E3%%%%%J%%%%J%%%%J%%%%J%%%%J%%%%J%%%%J%%%J%%%%J%%%J%%%J%%%J%%%J%%%J%%%J%%J%
46165F9%%J%%%J%%J%%J%%%J%%J%%J%%J%%J%%J%%J%%J%%J%%J%%J%J%%J%J%%J%J%%J%J%%J%J%J%J
46090I5%%J%J%J%J%J%J%J%J%J%J%J%JJ%J%J%JJ%J%JJ%J%JJ%JJ%JJ%JJ%JJ%JJJ%JJJ%JJJ%JJJJJ
46016A40%JJJJJJJ%JJJJJJJJJJJJJJJJJJJKJJJJJKJJJJKJJKJJJKJKJJKJKJKJKJKKJKKJKKJKKKK
45943B30KJKKKKKKKLKKKKLKKLKKLKLLKLLKLLLLLLLLLLMLLMLMMLMMMMMMMMNMNMNNNNNNNONOOOOO
45869D77OPOPPPPPQQQQQRQRJ0RJ0J0J0J0J1J1J2J2J2J2J3J3J4J4J5J5J5J6J7J7J7J9J8K0K0K1
45825I90K2K2K4K4K5K6K8K8K9L1L2L3L5L6L8L9M1M3M5M7N0N1N4N6O0O1O5O8P1P5P8Q2Q5Q9R4R7
45788B774J01J05J10J13J17J20J23J26J27J29J30J28J27J24J19J14J06R8Q7P6O4N1L6K3Qnj9l0
45760E182m1n1n8o5p1p3p6p6p6p4p2o8o5o0n5m9m4l8l2k6j9j3o%PJ4K0K7L4M1M8N5O2P0P6Q4R1
45722D603R9J06J14J21J28J36J42J49J54J60J65J68J72J73J74J74J71J69J63J58J51J43J35J25
45698H153J16J08R8R0Q3P6P0O4O0N6N3M9M5M1L7L2K7K0J4P%pj4k1k6l2l5l9m1m3m4m4m5m6m6m8
45661H768m9n3n7o2o8p6q3r1j01j09j18j26j33j40j44j49j50j52j52j50j47j44j39j35j28j21
45635E791j15j07j00r3q4p7o8o1n3m4l7k9k1j3oLJ0J8K6L4M1N0N7O6P4Q1Q9R7J05J12J19J25
45602E990J32J38J42J46J49J51J52J52J49J46J42J35J29J21J13J04R5Q6P9P0O5N8N5N0M9M7M5
45574H890M5M5M4M4M1M0L7L3K9K2J7J0Lmj2j8k4l0l5m0m3m8n1n4n9o3o8p3q0q7r5j04j13j22
45540H077j31j40j48j55j62j66j71j73j73j74j73j69j67j62j56j51j45j38j31j24j17j09j01r4
45515D547q7q0p2o5n7n1m4l6l0k3j6j0lMJ1J6K4K9L6M1M8N3N8O3O7P0P4P5P6P6P5P1O7O2N4M5
45479E168L4K3J1lj7l2m5n8p2q3r4j03j11j17j23j26j28j29j29j28j27j24j21j18j15j11j07
45451B915j02r9r5r1q7q3p9p6p3o9o6o3o0n7n5n3n0m8m5m4m2m0l8l7l5l4l3l1l0k8k8k7k5k5k4
45416A043k2k2k2k0k0j9j9j7j8j6j7j5j5j5j4j4j4j3j2j2j2j2j1j1j1j0j0j0j0rrrrqqqqqpppp
45373E06ppopoooonononnnnnnmnmnmmmmmmmmmlmmllmllmlllllllklllklklklklkklkkkkklkkkk
45300B38kkjkkkkkjkkjkkjkkjkjkjkjkjkjjkjjkjjkjjjkjjjjjkjjjjjjjjjjjjjjjjjjjjjjjjj%
45227A44jjjjj%jjjj%jjjj%jjj%jj%jj%jj%jj%jj%jj%j%jj%j%jj%j%j%jj%j%j%j%j%j%j%j%j%j
45153I7%j%%j%j%j%j%%j%j%%j%j%j%%j%%j%j%%j%%j%%j%j%%j%%j%%j%%j%%%j%%j%%j%%j%%%j%%
45079G1j%%%j%%%j%%j%%%j%%%j%%%j%%%j%%%%j%%%j%%%j%%%%j%%%%j%%%%j%%%j%%%%%j%%%%j%%
45005E4%%j%%%%%j%%%%%j%%%%%j%%%%%j%%%%%j%%%%%%j%%%%%j%%%%%%j%%%%%%j%%%%%%%j%%%%%
44931D3%%j%%%%%%%j%%%%%%%j%%%%%%%%j%%%%%%%%j%%%%%%%%%j%%%%%%%%%j%%%%%%%%%j%%%%%%
44856C5%%%%j%%%%%%%%%%j%%%%%%%%%%%j%%%%%%%%%%%%j%%%%%%%%%%%%j%%%%%%%%%%%%%j%%%%%
44782B9%%%%%%%%j%%%%%%%%%%%%%%%j%%%%%%%%%%%%%%%%j%%%%%%%%%%%%%%%%j%%%%%%%%%%%%%%
44708B5%%%%j%%%%%%%%%%%%%%%%%%%j%%%%%%%%%%%%%%%%%%%%%j%%%%%%%%%%%%%%%%%%%%%%j%%%
44634B1%%%%%%%%%%%%%%%%%%%%%%j%%%%%%%%%%%%%%%%%%%%%%%%%%j%%%%%%%%%%%%%%%%%%%%%%%
44559A9%%%%%%j%%%%%%%%%%%%%%%%%%%%%%%%%%%%%%%%j%%%%%%%%%%%%%%%%%%%%%%%%%%%%%%%%%
44485A7%%%j%%%%%%%%%%%%%%%%%%%%%%%%%%%%%%%%%%%%%%%%j%%%%%%%%%%%%%%%%%%%%%%%%%%%%
44411A5%%%%%%%%%%%%%%%%%%j%%%%%%%%%%%%%%%%%%%%%%%%%%%%%%%%%%%%%%%%%%%%%%%%%%%j%%
44336A3%%%%%%%%%%%%%%%%%%%%%%%%%%%%%%%%%%%%%%%%%%%%%%%%%%%%%%%%%%%j%%%%%%%%%%%%%
44262A2%%%%%%%%%%%%%%%%%%%%%%%%%%%%%%%%%%%%%%%%%%%%%%%%%%%%%%%%%%j%%%%%%%%%%%%%%
44188A1%%%%%%%%%%%%%%%%%%%%%%%%%%%%%%%%%%%%%%%%%%%%%%%%%%%%%%%%%%%%%%%%%%%%%%%%%
44114A1j%%%%%%%%%%%%%%%%%%%%%%%%%%%%%%%%%%%%%%%%%%%%%%%%%%%%%%%%%%%%%%%%%%%%%%%%
44039A0%%%%%%%%%%%%%%%%%%%%%%%%%%%%%%%%%%%%%j%%%%%%%%%%%%%%%%%%%%%%%%%%%%%%%%%%%
43965I%%%%%%%%%%%%%%%%%%%%%%%%%%%%%%%%%%%%%%%%%%%%%%%%%%%%%%%%%%%%%%%%%%%%%%%%%%
43890I%%%%%%%%%%%%%%%%%%%%%%%%%%%%%%%%%%%%%%j%%%%%%%%%%%%%%%%%%%%%%%%%%%%%%%%%%%
43815H%%%%%%%%%%%%%%%%%%%%%%%%%%%%%%%%%%%%%%%%%%%%%%%%%%%%%%%%%%%%%%%%%%%%%%%%%%
43739H%%%%%%%%%%%%%%%%%%%%%%%%%%%%%%%%%%%%%%%%%%%%%%%%%%%%%%%%%%%%%%%%%%%%%%%%%%
43664H%%%%%%%%%%%%%%%%%%%%%%%%%%%%%%%%%%%%%%%%%%%%%%j%%%%%%%%%%%%%%%%%%%%%%%%%%%
43589G%%%%%%%%%%%%%%%%%%%%%%%%%%%%%%%%%%%%%%%%%%%%%%%%%%%%%%%%%%%%%%%%%%%%%%%%%%
43514G%%%%%%%%%%%%%%%%%%%%%%%%%%%%%%%%%%%%%%%%%%%%%%%%%%%%%%%%%%%%%%%%%%%%%%%%%%
43438G%%%%%%%%%%%%%%%%%%%%%%%%%%%%%%%%%%%%%%%%%%%%%%%%%%%%%%%%%%%%%%%%%%%%%%%%%%
43363G%%%%%%%%%%%%%%%%%%%%%%%%%%%%%%%%%%%%%%%%%%%%%%%%%%%%%%%%%%%%%%%%%%%%%%%%%%
43288G%%%%%%%%%%%%%%%%%%%%%%%%%%%%%%%%%%%%%%%%%%%%%%%%%%%%%%%%%%%%%%%%%%%%%%%%%%
43212G%%%%%%%%%%%%%%%%%%%%%%%%%%%%%%%%%%%%%%%%%%%%%%%%%%%%%%%%%%%%%%%%%%%%%%%%%%
43137G%%%%%%%%%%%%%%%%%%%%%%%%%%%%%%%%%%%%%%%%%%%%%%%%%%%%%%%%%%%%%%%%%%%%%%%%%%
43062G%%%%%%%%%%%%%%%%%%%%%%%%%%%%%%%%%%%%%%%%%%%%%%%%%%%%%%%%%%%%%%%%%%%%%%%%%%
42987G%%%%%%%%%%%%%%%%%%%%%%%%%%%%%%%%%%%%%%%%%%%%%%%%%%%%%%%%%%%%%%%%%%%%%%%%%%
42911G%%%%%%%%%%%%%%%%%%%%%%%%%%%%%%%%%%%%%%%%%%%%%%%%%%%%%%%%%%%%%%%%%%%%%%%%%%
42836G%%%%%%%%%%%%%%%%%%%%%%%%%%%%%%%%%%%%%%%%%%%%%%%%%%%%%%%%%%%%%%%%%%%%%%%%%%
42761G%%%%%%%%%%%%%%%%%%%%%%%%%%%%%%%%%%%%%%%%%%%%%%%%%%%%%%%%%%%%%%%%%%%%%%%%%%
42685G%%%%%%%%%%%%%%%%%%%%%%%%%%%%%%%%%%%%%%%%%%%%%%%%%%%%%%%%%%%%%J%%%%%%%%%%%%
42610H%%%%%%%%%%%%%%%%%%%%%%%%%%%%%%%%%%%%%%%%%%%%%%%%%%%%%%%%%%%%%%%%%%%%%%%%%%
42535H%%%%%%%%%%%%%%%%%%%%%%%%%%%%%%%%%%%%%%%%%%%%%%%%%%%%%%%%%%%%%%%%%%%%%%%%%%
42460H%%%%%%%%%%%%%%%%%%%%%%%%%%%%%%%%%%%%%%%%%%%%%%%%%%%%%%%%%%%%%%%%%%%%%%%%%%
42384H%%%%%%%%%%%%%%%J%%%%%%%%%%%%%%%%%%%%%%%%%%%%%%%%%%%%%%%%%%%%%%%%%%%%%%%%%%
42309I%%%%%%%%%%%%%%%%%%%%%%%%%%%%%%%%%%%%%%%%%%%%%%%%%%%%%%%%%%%%%%%%%%%%%%%%%%
42234I%%%%%%%%%%%%%%%%%%%%%%%%%%%%%%%%J%%%%%%%%%%%%%%%%%%%%%%%%%%%%%%%%%%%%%%%%%
42159A0%%%%%%%%%%%%%%%%%%%%%%%%%%%%%%%%%%%%%%%%%%%%%%%%%%%%%%%%%%%%%%%%%%%%%%%%%
42084A0%%%%%%%%%J%%%%%%%%%%%%%%%%%%%%%%%%%%%%%%%%%%%%%%%%%%%%%%%%%%%%%%%%%%%%%%%
42010A1%%%%%%%%%%%%%%%%%%%%%%%%%%%%%%%%%%%%J%%%%%%%%%%%%%%%%%%%%%%%%%%%%%%%%%%%%
41936A2%%%%%%%%%%%%%%%%%%%%%%%%%%%%%%%%%%%%%%%%%%%%%J%%%%%%%%%%%%%%%%%%%%%%%%%%%
41861A3%%%%%%%%%%%%%%%%%%%%%%%%%%%%%%%%%%%%%%%%%%J%%%%%%%%%%%%%%%%%%%%%%%%%%%%%%
41787A4%%%%%%%%%%%%%%%%%%%%%%%%%%%%%%J%%%%%%%%%%%%%%%%%%%%%%%%%%%%%%%%%%%%%%%%%%
41713A5%%%%%%%%%%J%%%%%%%%%%%%%%%%%%%%%%%%%%%%%%%%%%%%%%%%%%%%%%%J%%%%%%%%%%%%%%
41639A7%%%%%%%%%%%%%%%%%%%%%%%%%%%J%%%%%%%%%%%%%%%%%%%%%%%%%%%%%%%%%%%%%J%%%%%%%
41564A9%%%%%%%%%%%%%%%%%%%%%%%%%%%J%%%%%%%%%%%%%%%%%%%%%%%%%%%%%%%J%%%%%%%%%%%%%
41490B1%%%%%%%%%%%%%%%J%%%%%%%%%%%%%%%%%%%%%%%%%%J%%%%%%%%%%%%%%%%%%%%%%%%J%%%%%
41416B4%%%%%%%%%%%%%%%%%J%%%%%%%%%%%%%%%%%%%%%J%%%%%%%%%%%%%%%%%%%J%%%%%%%%%%%%%
41342B7%%%%%J%%%%%%%%%%%%%%%%%J%%%%%%%%%%%%%%%%J%%%%%%%%%%%%%%%J%%%%%%%%%%%%%%J%
41267C2%%%%%%%%%%%%J%%%%%%%%%%%%%J%%%%%%%%%%%%J%%%%%%%%%%%%J%%%%%%%%%%J%%%%%%%%%
41193C7%%J%%%%%%%%%%J%%%%%%%%%J%%%%%%%%%J%%%%%%%%%J%%%%%%%%J%%%%%%%%J%%%%%%%J%%%
41119D5%%%%%J%%%%%%%J%%%%%%J%%%%%%%J%%%%%%J%%%%%%J%%%%%%J%%%%%J%%%%%%J%%%%%J%%%%
41045E5%J%%%%%J%%%%J%%%%%J%%%%J%%%%%J%%%%J%%%%J%%%J%%%%J%%%%J%%%J%%%%J%%%J%%%J%%
40970G0%J%%%J%%%J%%%J%%%J%%J%%%J%%J%%%J%%J%%%J%%J%%J%%J%%J%%J%%J%%J%%J%%J%%J%J%%
40896I2J%%J%J%%J%J%%J%J%J%%J%J%J%%J%J%J%J%J%J%J%J%J%J%J%J%J%J%JJ%J%J%JJ%J%JJ%J%J
40822A28J%JJ%JJ%JJ%JJ%JJ%JJJ%JJJ%JJJJ%JJJJ%JJJJJ%JJJJJJJJJJJJJJJJJJJJJJJJJJJJJKJ
40749A90JJJJKJJJKJJJKJJKJJKJKJJKJKJKJKJKKJKKJKKJKKKJKKKKKKJKKKKKLKKKKKLKKKLKKLKL
40675C13KLKLLKLLKLLLLLLLLLLLLMLLMLMLMMLMMMMLNMMMMMNMNMNNNMNNONNNONONOOOOOPOOPPPP
40602F18PPPPQQQQQQQRRRRRRJ0J0J0J0J0J1J0J1J1J2J2J1J3J2J3J3J3J3J4J4J4J5J5J5J6J6J7
40557A097J6J7J8J8J8J9J9K0K0K1K1K2K2K3K4K4K4K6K6K6K8K8K9L0L0L1L3L3L4L5L6L7L9L9M1
40522B024M1M4M4M6M7M9N1N2N4N5N8N9O1O4O6O8P0P3P6P9Q1Q5Q7R1R5R8J03J06J11J15J20J25
40489D398J30J35J42J48J54J61J69J76J84J93K01K12K21K32K44K55K68K81K96L10L26L43L60
40466I539L79L99M19M41M64M87N12N38N65N93O22O50O81P10P40P69P97Q25Q48Q70Q88R01R07
40442B4544R08R01Q83Q57Q20P70P09O36N52M57L54K42J27Pj12k28l41m45n41o26p01p63q14q53
40418B7343q81q98r08r08r02q89q73q51q27q01p72p44p13o84o54o25n96n69n41n15m90m67m43
40395A0792m22m01l81l63l44l28l13k97k83k69k57k44k34k22k13k03j93j85j77j70j61j55j49
40371D828j42j36j31j26j20j16j11j06j03r9r5r1q8q5q2p8p6p4p0o9o6o3o2o0n7n6n4n2n0m9m8
40340B213m6m4m3m2m1l9l9l7l6l5l4l4l2l1l1k9k9k8k8k6k6k5k5k4k4k2k3k1k2k0k0k0j9j9j8
40304A181j8j8j7j6j7j6j5j6j5j4j4j4j4j3j4j2j3j2j2j2j2j1j1j1j1j0j0j0j0j0rj0rrqrqrqq
40263F96qpqpqppppopopoooooononnonnnnnnmnnmmnmmmnmmlmmmlmmlmllmllllmllklllllkllkl
40190C64klklkklkkkklkkkkkkkkkjkkkkjkkjkkjkjkjkjkjjkjkjjjkjjjjkjjjjjjjjjjjjjjj%jj
40117B52jj%jjj%jj%jj%jj%j%j%j%j%j%%j%%j%%j%%%j%%%%%j%%%%%%%%%%%%J%%%%%J%%J%%J%%J
40044B36%J%J%JJ%JJ%JJJJJ%JJJJKJJJJKJJKJKJKJKKKJKKKKLKKKLKLLKLLLLLMLMLMMMMMMNNMNO
39970C85NNOOOOPOPQPQQQRRRJ0J0J1J0J2J2J2J3J3J4J4J5J6J7J7J8J8K0K1K1K2K4K5K5K8K8L0
39926I81L1L3L4L6L8M0M2M4M6M8N0N3N6N8O0O3O6O8P0P3P5P7P9P9Q1Q1Q1Q0P9P6P4P1O6O2N7N1
39889C159M6M1L5K9K5K0J6J3RPML%jmoqj2j5j9k3k9l3l9m5n0n6o0o5p0p3p5p8p9q1q0q0p9p8p7
39848B092p4p3p0o8o5o2o1n7n5n3n0m8m5m3m2l9l7l6l4l2l0k9k8k6k5k4k3k2k0k0j9j7j7j7j5
39813G16j5j4j3j3j2j2j1j1j0rj0qrqpqpoooonnnnmmmlmllklkkkkjkjj%j%j%%J%JJJJJKKKKKLK
39750D71LLMLMMNMNNNOOOPOQPQQRRRJ0J1J1J1J2J2J3J4J4J5J6J7J7J8J9K0K1K2K3K4K5K7K7L0
39702A034L1L2L4L6L7M0M1M4M5M8N1N2N5N8O0O3O6O8P0P3P5P6P9Q0Q0Q1Q1Q0P9P7P4P0O7O2N7
39666C156N2M6M0L6K9K5K1J6J3J0PNKJjlnqj1j5j8k3k8l3l8m4m9n5o0o5o8p2p5p7p8p9q0p9p8
39627B317p7p6p3p1o9o7o4o1n9n6n4n1m8m6m4m2l9l8l5l4l2l0k8k7k6k4k2k2k0j9j7j7j6j5j3
39591H85j3j2j2j0j0qqqponnmllkkj%%%KKKLMNNNPPQQRJ0J1J2J2J4J4J5J7J7J8K0K1K2K4K4K7
39540A111K8K9L1L3L5L7L8M1M3M6M7N0N3N5N8O1O3O5O8P1P3P4P7P7P9P9Q0P8P8P5P3O9O6O1N7
39504C159N1M5M0L4L0K4J9J6J2ROLKjkmprj2j5j9k4k8l4l9m5n0n5o1o6o9p3p6p9p9q1q1q1q1p9
39464B200p7p6p3p1o9o7o3o1n9n6n4n1m9m6m4m3m0l8l7l4l3l2k9k9k7k6k5k3k2k2k0j9j9j7j7
39428G32j6j6j4j4j4j3j2j2j1j0j1rj0rqqqpqopoononmnmmmmllllklkkkjkjjjj%%j%J%J%JJKJK
39367D34KKKKLLLLMMMMNMNONOPOPQPQRRRJ0J0J1J1J2J3J3J3J5J5J5J7J7J9J9K0K1K2K3K5K6K7
39317I45K8L0L2L3L4L7L8M1M2M5M7M9N2N4N6N9O2O4O7O9P2P3P6P7P9Q0Q0Q0P9P8P7P3P0O7O2N7
39281C064N1M6M1L5L0K4K0J6J2J0OMK%kmpqj2j5j9k4k8l4l9m4n0n6o0o6o9p4p6p8q0q1q1q1q1
39241B192p9p8p6p3p2o9o7o4o1n9n7n4n1n0m7m4m3m1l9l7l5l3l2l1k9k8k6k6k4k3k2k1k0k0j8
39205F43j8j7j6j6j5j4j4j3j3j2j2j2j1j0j0j0j0rrqqqqpqpopooooonnnnnnnmmmnmlmmlmlmlll
39149B15llllkllklkklkkklkkkkkjkkkkjkkjkjkjkjkjjkjjkjjjjkjjjjjjjjjjjjjjjjjj%jjjjj
39076A01%jjj%jj%jjj%jj%j%jj%j%jj%j%j%j%j%jj%%j%j%j%j%j%%j%j%j%%j%j%%j%%j%%j%j%%j
39003F4%%j%%%j%%j%%j%%%j%%j%%%j%%%j%%%j%%%j%%%j%%%%j%%%j%%%%j%%%%j%%%%%j%%%%j%%%
38929D7%%j%%%%%j%%%%%j%%%%%%j%%%%%%j%%%%%%j%%%%%%j%%%%%%%j%%%%%%%%j%%%%%%%%j%%%%
38854C7%%%%%j%%%%%%%%%j%%%%%%%%%%j%%%%%%%%%%j%%%%%%%%%%%%j%%%%%%%%%%%%j%%%%%%%%%
38780C1%%%%%j%%%%%%%%%%%%%%j%%%%%%%%%%%%%%%%j%%%%%%%%%%%%%%%%%%j%%%%%%%%%%%%%%%%
38706B7%%%%j%%%%%%%%%%%%%%%%%%%%%%%j%%%%%%%%%%%%%%%%%%%%%%%%%j%%%%%%%%%%%%%%%%%%
38632B4%%%%%%%%%%%%j%%%%%%%%%%%%%%%%%%%%%%%%%%%%%%%%%%%j%%%%%%%%%%%%%%%%%%%%%%%%
38557B2%%%%%%%%%%%%%%%%%%%j%%%%%%%%%%%%%%%%%%%%%%%%%%%%%%%%%%%%%%%%%%%%%%%%%%%%%
38483B1%%%%%%%j%%%%%%%%%%%%%%%%%%%%%%%%%%%%%%%%%%%%%%%%%%%%%%%%%%%%%%%%%%%%%%%%%
38409B0%%%%%%%%%%%%%%%%%%%%%%%%%%%%%%%%%%%%%%%%%%%%%%%%%%%%%%%%%%%%%%%%%%%%j%%%%
38335A9%%%%%%%%%%%%%%%%%%%%%%%%%%%%%%%%J%%%%%%%%%%%%%%%%%%%%%%%%%%%%%%%%%%%%%%%%
38260B0%%%%%%%%%%%%%%%%%%%%%%%%%%%%%%%%%%%%%%%%%%%%%%%%%%%%%%%%%%%%%%%%%%%%%%%%%
38186B0%%%%%%%%%%%%%%%J%%%%%%%%%%%%%%%%%%%%%%%%%%%%%%%%%%%%%%%%%%%%%%%%%%%%%%J%%
38112B2%%%%%%%%%%%%%%%%%%%%%%%%%%%%%%%%%%%%%%J%%%%%%%%%%%%%%%%%%%%%%%%%%%%%%%J%%
38038B4%%%%%%%%%%%%%%%%%%%%%%%J%%%%%%%%%%%%%%%%%%%%%%%J%%%%%%%%%%%%%%%%%%%J%%%%%
37963B7%%%%%%%%%%%%J%%%%%%%%%%%%%%%J%%%%%%%%%%%%%%J%%%%%%%%%%%%%J%%%%%%%%%%%J%%%
37889C2%%%%%%%%J%%%%%%%%%J%%%%%%%%%J%%%%%%%%%J%%%%%%%J%%%%%%%%J%%%%%%%J%%%%%%J%%
37815D0%%%%J%%%%%%J%%%%%J%%%%%J%%%%%J%%%%J%%%%%J%%%%J%%%J%%%%J%%%%J%%%J%%%J%%%J%
37741E4%%J%%%J%%J%%%J%%J%%J%%%J%%J%%J%J%%J%%J%%J%J%%J%J%%J%J%J%J%%J%J%J%J%J%JJ%J
37666H2%J%JJ%J%JJ%J%JJ%JJJ%JJ%JJJJ%JJJJ%JJJJJJJJJJJJJJJJJJJKJJJJKJJKJJKJKJKJKJKJ
37592A52KKKJKKKKKKKKKKKLKKLKLKLLLKLLLLMLLMLMMLMMMNMNMNNNNNOONOPOPPPPQPQRRRRJ0J0
37522D47J0J1J1J2J2J3J3J4J4J5J5J7J7J7J9J9K0K2K2K3K4K6K6K8L0L0L3L4L5L7L9M1M2M5M7M8
37485A328N1N2N4N7N8N9O1O2O3O3O3O2O1O0N6N3M9M5L8L3K7J9J2Okrj4k1k6l0l3l7l9m0m1m0m1
37448B119l9l9l6l4l2l0k7k4k1j8j6j2rok%MPJ0J3J6K0K3K7L0L3L7M0M3M7N1N3N7O0O2O6O8O9
37409B610P2P3P3P3P3P1O9O7O4N9N5N1M5M0L4L0K5K0J6J3RQMLJ%kmorj2j5j9k3k8l4l8m4m9n3
37368C322n9o2o6o8p1p2p3p3p2p1p0o8o6o2o1n7n3n1m7m4m1l7l3l0k7k4k0j7j3j1pm%KORJ2J4
37330A835J8K1K4K7L0L1L5L6L8M0M1M1M2M0M0L8L4L2K7K2J7J0Mmj0j8k4l1l7m3m7n2n5n9o0o1
37293B022o3o2o2o2o1n9n8n6n4n2n1m8m6m5m2m1l8l7l5l4l2l0k9k8k6k5k4k3k1k1k0j8j8j7j7
37257F67j5j5j5j3j3j3j2j1j1j0j0j0rrrqpqpppooononnmnmnmlmlmllllklkkkkkkkjkjjjjjjj%
37196C32j%j%%%%%J%%JJ%JJJJKJKJKKKKKKLKLLLLLMLMMMMNMNNNOOOOOPPPQQQRRJ0RJ1J1J1J1J3
37129E91J3J3J4J5J5J6J7J7J9J9K0K2K2K3K5K6K7K8L0L1L3L5L6L8M0M1M4M6M7N0N1N4N5N7N9O0
37093A749O2O2O2O3O2O0N9N7N3M9M5L9L4K6K1J3Okpj5k0k5l0l4l6l9m0m2m1m1m0l9l7l5l3l1k8
37055A907k5k2j9j6j3j0pljLORJ2J6J8K3K5K9L2L6L9M3M6M9N3N6N9O1O5O7O9P1P2P3P3P2P1P0
37016C109O7O3O0N6N0M6M1L5L0K5K1J6J3J0PNKJ%kmpqj2j5j8k3k8l3l8m3m8n3n8o2o6o8p1p2p4
36976B854p3p3p2p0o9o6o4o1n8n5n1m8m5m2l8l4l1k8k5k1j8j4j1qnkKMQJ1J4J7K0K3K6K9L1L3
36937A990L6L8L9M0M1M1M0L9L8L5L1K8K2J7J1Mkj0j7k3l1l6m3m7n2n5n8o1o2o2o4o3o2o1o0n9
36900A562n7n5n3n2m9m7m5m4m1m0l8l6l4l3l1l0k9k7k6k5k3k3k1k1k0j8j8j8j6j6j5j5j4j3j3
36865E06j2j2j2j1j0j0j0j0rrqqqqpqpopoooononnnnnmnmmmmmmlmlmlllmlkllllklklkklkkkkk
36800A70ljkkkkkkjkkjkkjkjkjjkjjkjjkjjjjkjjjjjjjjjjjjjjjjjj%jjjjj%jjj%jjj%jj%jj%j
36726H6j%jj%j%jj%j%j%j%jj%j%j%j%%j%j%j%j%j%%j%j%%j%j%%j%%j%j%%j%%j%%j%%j%%j%%%j%
36652E4%j%%%j%%j%%%j%%%j%%%j%%%j%%%j%%%%j%%%%j%%%j%%%%j%%%%%j%%%%j%%%%%j%%%%%j%%
36578C8%%%j%%%%%j%%%%%%j%%%%%%j%%%%%%%j%%%%%%%j%%%%%%%j%%%%%%%%j%%%%%%%%j%%%%%%%
36504B9%%j%%%%%%%%%%j%%%%%%%%%%j%%%%%%%%%%%j%%%%%%%%%%%j%%%%%%%%%%%%%j%%%%%%%%%%
36429B3%%%%j%%%%%%%%%%%%%%%j%%%%%%%%%%%%%%%%j%%%%%%%%%%%%%%%%%%j%%%%%%%%%%%%%%%%
36355A9%%%%j%%%%%%%%%%%%%%%%%%%%%j%%%%%%%%%%%%%%%%%%%%%%%%%j%%%%%%%%%%%%%%%%%%%%
36281A6%%%%%%%j%%%%%%%%%%%%%%%%%%%%%%%%%%%%%%j%%%%%%%%%%%%%%%%%%%%%%%%%%%%%%%%%%
36206A4%j%%%%%%%%%%%%%%%%%%%%%%%%%%%%%%%%%%%%%%%j%%%%%%%%%%%%%%%%%%%%%%%%%%%%%%%
36132A2%%%%%%%%%%%%%%%j%%%%%%%%%%%%%%%%%%%%%%%%%%%%%%%%%%%%%%%%%%%%%%%%%%%%%%j%%
36058A0%%%%%%%%%%%%%%%%%%%%%%%%%%%%%%%%%%%%%%%%%%%%%%%%%%%%%%%%%%%%%%%j%%%%%%%%%
35984I%%%%%%%%%%%%%%%%%%%%%%%%%%%%%%%%%%%%%%%%%%%%%%%%%%%%%%%%%%%%%%%%%%%%%%%j%%
35908H%%%%%%%%%%%%%%%%%%%%%%%%%%%%%%%%%%%%%%%%%%%%%%%%%%%%%%%%%%%%%%%%%%%%%%%%%%
35833H%%%%%%%%%%%%%%%%%%%%%%%j%%%%%%%%%%%%%%%%%%%%%%%%%%%%%%%%%%%%%%%%%%%%%%%%%%
35758G%%%%%%%%%%%%%%%%%%%%%%%%%%%%%%%%%%%%%%%%%%%%%%%%%%%%%%%%%%%%%%%%%%%%%%%%%%
35683G%%%%%%j%%%%%%%%%%%%%%%%%%%%%%%%%%%%%%%%%%%%%%%%%%%%%%%%%%%%%%%%%%%%%%%%%%%
35607F%%%%%%%%%%%%%%%%%%%%%%%%%%%%%%%%%%%%%%%%%%%%%%%%%%%%%%%%%%%%%%%%%%%%%%%%%%
35532F%%%%%%%%%%%%%%%%%%%%%%%%%%%%%%%%%%%%j%%%%%%%%%%%%%%%%%%%%%%%%%%%%%%%%%%%%%
35457E%%%%%%%%%%%%%%%%%%%%%%%%%%%%%%%%%%%%%%%%%%%%%%%%%%%%%%%%%%%%%%%%%%%%%%%%%%
35381E%%%%%%%%%%%%%%%%%%%%%%%%%%%%%%%%%%%%%%%%%%%%%%%%%%%%%%%%%%%%%%%%%%%%%%%%%%
35306E%%%%%%%%%%%%%%%%%%%%%%%%%%%%%%%%%%%%%%%%%%%%%%%%%%%%%%%%%%%%%%%%%%%%%%%%%%
35231E%%%j%%%%%%%%%%%%%%%%%%%%%%%%%%%%%%%%%%%%%%%%%%%%%%%%%%%%%%%%%%%%%%%%%%%%%%
35156D%%%%%%%%%%%%%%%%%%%%%%%%%%%%%%%%%%%%%%%%%%%%%%%%%%%%%%%%%%%%%%%%%%%%%%%%%%
35080D%%%%%%%%%%%%%%%%%%%%%%%%%%%%%%%%%%%%%%%%%%%%%%%%%%%%%%%%%%%%%%%%%%%%%%%%%%
35005D%%%%%%%%%%%%%%%%%%%%%%%%%%%%%%%%%%%%%%%%%%%%%%%%%%%%%%%%%%%%%%%%%%%%%%%%%%
34930D%%%%%%%%%%%%%%%%%%%%%%%%%%%%%%%%%%%%%%%%%%%%%%%%%%%%%%%%%%%%%%%%%%%%%%%%%%
34855D%%%%%%%%%%%%%%%%%%%%%%%%%%%%%%%%%%%%%%%%%%%%%%%%%%%%%%%%%%%%%%%%%%%%%%%%%%
34779D%j%%%%%%%%%%%%%%%%%%%%%%%%%%%%%%%%%%%%%%%%%%%%%%%%%%%%%%%%%%%%%%%%%%%%%%%%
34704C%%%%%%%%%%%%%%%%%%%%%%%%%%%%%%%%%%%%%%%%%%%%%%%%%%%%%%%%%%%%%%%%%%%%%%%%%%
34629C%%%%%%%%%%%%%%%%%%%%%%%%%%%%%%%%%%%%%%%%%%%%%%%%%%%%%%%%%%%%%%%%%%%%%%%%%%
34553C%%%%%%%%%%%%%%%%%%%%%%%%%%%%%%%%%%%%%%%%%%%%%%%%%%%%%%%%%%%%%%%%%%%%%%%%%%
34478C%%%%%%%%%%%%%%%%%%%%%%%%%%%%%%%%%%%%%%%%%%%%%%%%%%%%%%%%%%%%%%%%%%%%%%%%%%
34403C%%%%%%%%%%%%%%%%%%%%%%%%%%%%%%%%%%%%%%%%%%%%%%%%%%%%%%%%%%%%%%%%%%%%%%%%%%
34328C%%%%%%%%%%%%%%%%%%%%%%%%%%%%%%%%%%%%%%%%%%%%%%%%%%%%%%%%%%%%%%%%%%%%%%%%%%
34252C%%%%%%%%%%%%%%%%%%%%%%%%%%%%%%%%%%%%%%%%%%%%%%%%%%%%%%%%%%%%%%%%%%%%%%%%%%
34177C%%%%%%%%%%%%%%%%%%%%%%%%%%%%%%%%%%%%%%%%%%%%%%%%%%%%%%%%%%%%%%%%%%%%%%%%%%
34102C%%%%%%%%%%%%%%%%%%%%%%%%%%%%%%%%%%%%%%%%%%%%%%%%%%%%%%%%%%%%%%%%%%%%%%%%%%
34026C%%%%%%%%%%%%%%%%%%%%%%%%%%%%%%%%%%%%%%%%%%%%%%%%%%%%%%%%%%%%%%%%%%%%%%%%%%
33951C%%%%%%%%%%%%%%%%%%%%%%%%%%%%%%%%%%%%%%%%%%%%%%%%%%%%%%%%%%%%%%%%%%%%%%%%%%
33876C%%%%%%%%%%%%%%%%%%%%%%%%%%%%%%%%%%%%%%%%%%%%%%%%%%%%%%%%%%%%%%%%%%%%%%%%%%
33801C%%%%%%%%%%%%%%%%%%%%%%%%%%%%%%%%%%%%%%%%%%%%%%%%%%%%%%%%%%%%%%%%%%%%%%%%%%
33725C%%%%%%%%%%%%%%%%%%%%%%%%%%%%%%%%%%%%%%%%%%%%%%%%%%%%%%%%%%%%%%%%%%%%%%%%%%
33650C%%%%%%%%%%%%%%%%%%%%%%%%%%%%%%%%%%%%j%%%%%%%%%%%%%%%%%%%%%%%%%%%%%%%%%%%%%
33575B%%%%%%%%%%%%%%%%%%%%%%%%%%%%%%%%%%%%%%%%%%%%%%%%%%%%%%%%%%%%%%%%%%%%%%%%%%
33500B%%%%%%%%%%%%%%%%%%%%%%%%%%%%%%%%%%%%%%%%%%%%%%%%%%%%%%%%%%%%%%%%%%%%%%%%%%
33424B%%%%%%%%%%%%%%%%%%%%%%%%%%%%%%%%%%%%%%%%%%%%%%%%%%%%%%%%%%%%%%%%%%%%%%%%%%
33349B%%%%%%%%%%%%%%%%%%%%%%%%%%%%%%%%%%%%%%%%%%%%%%%%%%%%%%%%%%%%%%%%%%%%%%%%%%
33274B%%%%%%%%%%%%%%%%%%%%%%%%%%%%%%%%%%%%%%%%%%%%%%%%%%%%%%%%%%%%%%%%%%%%%%%%%%
33198B%%%%%%%%%%%%%%%%%%%%%%%%%%%%%%%%%%%%%%%%%%%%%%%%%%%%%%%%%%%%%%%%%%%%%%%%%%
33123B%%%%%%%%%%%%%%%%%%%%%%%%%%%%%%%%%%%%%%%%%%%%%%%%%%%%%%%%%%%%%%%%%%%%%%%%%%
33048B%%%%%%%%%%%%%%%%%%%%%%%%%%%%%%%%%%%%%%%%%%%%%%%%%%%%%%%%%%%%%%%%%%%%%%%%%%
32973B%%%%%%%%%%%%%%%%%%%%%%%%%%%%%%%%%%%%%%%%%%%%%%%%%%%%%%%%%%%%%%%%%%%%%%%%%%
32897B%%%%%%%%%%%%%%%%%%%%%%%%%%%%%%%%%%%%%%%%%%%%%%%%%%%%%%%%%%%%%%%%%%%%%%%%%%
32822B%%%%%%%%%%%%%%%%%%%%%%%%%%%%%%%%%%%%%%%%%%%%%%%%%%%%%%%%%%%%%%%%%%%%%%%%%%
32747B%%%%%%%%%%%%%%%%%%%%%%%%%%%%%%%%%%%%%%%%%%%%%%%%%%%%%%%%%%%%%%%%%%%%%%%%%%
32671B%%%%%%%%%%%%%%%%%%%%%%%%%%%%%%%%%%%%%%%%%%%%%%%%%%%%%%%%%%%%%%%%%%%%%%%%%%
32596B%%%%%%%%%%%%%%%%%%%%%%%%%%%%%%%%%%%%%%%%%%%%%%%%%%%%%%%%%%%%%%%%%%%%%%%%%%
32521B%%%%%%%%%%%%%%%%%%%%%%%%%%%%%%%%%%%%%%%%%%%%%%%%%%%%%%%%%%%%%%%%%%%%%%%%%%
32446B%%%%%%%%%%%%%%%%%%%%%%%%%%%%%%%%%%%%%%%%%%%%%%%%%%%%%%%%%%%%%%%%%%%%%%%%%%
32370B%%%%%%%%%%%%J%%%%%%%%%%%%%%%%%%%%%%%%%%%%%%%%%%%%%%%%%%%%%%%%%%%%%%%%%%%%%
32295C%%%%%%%%%%%%%%%%%%%%%%%%%%%%%%%%%%%%%%%%%%%%%%%%%%%%%%%%%%%%%%%%%%%%%%%%%%
32220C%%%%%%%%%%%%%%%%%%%%%%%%%%%%%%%%%%%%%%%%%%%%%%%%%%%%%%%%%%%%%%%%%%%%%%%%%%
32145C%%%%%%%%%%%%%%%%%%%%%%%%%%%%%%%%%%%%%%%%%%%%%%%%%%%%%%%%%%%%%%%%%%%%%%%%%%
32069C%%%%%%%%%%%%%%%%%%%%%%%%%%%%%%%%%%%%%%%%%%%%%%%%%%%%%%%%%%%%%%%%%%%%%%%%%%
31994C%%%%%%%%%%%%%%%%%%%%%%%%%%%%%%%%%%%%%%%%%%%%%%%%%%%%%%%%%%%%%%%%%%%%%%%%%%
31919C%%%%%%%%%%%%%%%%%%%%%%%%%%%%%%%%%%%%%%%%%%%%%%%%%%%%%%%%%%%%%%%%%%%%%%%%%%
31843C%%%%%%%%%%%%%%%%%%%%%%%%%%%%%%%%%%%%%%%%%%%%%%%%%%%%%%%%%%%%%%%%%%%%%%%%%%
31768C%%%%%%%%%%%%%%%%%%%%%%%%%%%%%%%%%%%%%%%%%%%%%%%%%%%%%%%%%%%%%%%%%%%%%%%%%%
31693C%%%%%%%%%%%%%%%%%%%%%%%%%%%%%%%%%%%%%%%%%%%%%%%%%%%%%%%%%%%%%%%%%%%%%%%%%%
31618C%%%%%%%%%%%%%%%%%%%%%%%%%%%%%%%%%%%%%%%%%%%%%%%%%%%%%%%%%%%%%%%%%%%%%%%%%%
31542C%%%%%%%%%%%%%%%%%%%%%%%%%%%%%%%%%%%%%%%%%%%%%%%%%%%%%%%%%%%%%%%%%%%%%%%%%%
31467C%%%%%%%%%%%%%%%%%%%%%%%%%%%%%%%%%%%%%%%%%%%%%%%%%%%%%%%%%%%%%%%%%%%%%%%%%%
31392C%%%%%%%%%%%%%%%%%%%%%%%%%%%%%%%%%%%%%%%%%%%%%%%%%%%%%%%%%%%%%%%%%%%%%%%%%%
31316C%%J%%%%%%%%%%%%%%%%%%%%%%%%%%%%%%%%%%%%%%%%%%%%%%%%%%%%%%%%%%%%%%%%%%%%%%%
31241D%%%%%%%%%%%%%%%%%%%%%%%%%%%%%%%%%%%%%%%%%%%%%%%%%%%%%%%%%%%%%%%%%%%%%%%%%%
31166D%%%%%%%%%%%%%%%%%%%%%%%%%%%%%%%%%%%%%%%%%%%%%%%%%%%%%%%%%%%%%%%%%%%%%%%%%%
31091D%%%%%%%%%%%%%%%%%%%%%%%%%%%%%%%%%%%%%%%%%%%%%%%%%%%%%%%%%%%%%%%%%%%%%%%%%%
31015D%%%%%%%%%%%%%%%%%%%%%%%%%%%%%%%%%%%%%%%%%%%%%%%%%%%%%%%%%%%%%%%%%%%%%%%%%%
30940D%%%%%%%%%%%J%%%%%%%%%%%%%%%%%%%%%%%%%%%%%%%%%%%%%%%%%%%%%%%%%%%%%%%%%%%%%%
30865E%%%%%%%%%%%%%%%%%%%%%%%%%%%%%%%%%%%%%%%%%%%%%%%%%%%%%%%%%%%%%%%%%%%%%%%%%%
30790E%%%%%%%%%%%%%%%%%%%%%%%%%%%%%%%%%%%%%%%%%%%%%%%%%%%%%%%%%%%%%%%%%%%%%%%%%%
30714E%%%%%%%%%%%%%J%%%%%%%%%%%%%%%%%%%%%%%%%%%%%%%%%%%%%%%%%%%%%%%%%%%%%%%%%%%%
30639F%%%%%%%%%%%%%%%%%%%%%%%%%%%%%%%%%%%%%%%%%%%%%%%%%%%%%%%%%%%%%%%%%%%%%%%%%%
30564F%%%%%%%%%%%%%%%%%%%J%%%%%%%%%%%%%%%%%%%%%%%%%%%%%%%%%%%%%%%%%%%%%%%%%%%%%%
30488G%%%%%%%%%%%%%%%%%%%%%%%%%%%%%%%%%%%%%%%%%%%%%%%%%%%%%%%%%%%J%%%%%%%%%%%%%%
30413H%%%%%%%%%%%%%%%%%%%%%%%%%%%%%%%%%%%%%%%%%%%%%%%%%%%%%%%%%%%%%%%%%%%%%%%%%J
30338I%%%%%%%%%%%%%%%%%%%%%%%%%%%%%%%%%%%%%%%%%%%%%%%%%%%%%%%%%%%%%%%%%%%%%%%J%%
30263A0%%%%%%%%%%%%%%%%%%%%%%%%%%%%%%%%%%%%%%%%%%%%%%%%%%%%%%%%J%%%%%%%%%%%%%%%%
30188A1%%%%%%%%%%%%%%%%%%%%%%%%%%%%%%%%%%J%%%%%%%%%%%%%%%%%%%%%%%%%%%%%%%%%%%%%%
30114A2%%%%J%%%%%%%%%%%%%%%%%%%%%%%%%%%%%%%%%%%%%J%%%%%%%%%%%%%%%%%%%%%%%%%%%%%%
30040A4%%%J%%%%%%%%%%%%%%%%%%%%%%%%%%%%%J%%%%%%%%%%%%%%%%%%%%%%%%%J%%%%%%%%%%%%%
29966A7%%%%%%%%%%%J%%%%%%%%%%%%%%%%%%%%%J%%%%%%%%%%%%%%%%%%%J%%%%%%%%%%%%%%%%%%J
29891B1%%%%%%%%%%%%%%%%J%%%%%%%%%%%%%%%J%%%%%%%%%%%%%%J%%%%%%%%%%%%%J%%%%%%%%%%%
29817B5%J%%%%%%%%%%%J%%%%%%%%%%J%%%%%%%%%%J%%%%%%%%%%J%%%%%%%%J%%%%%%%%%J%%%%%%%
29743C2J%%%%%%%%J%%%%%%%J%%%%%%J%%%%%%%J%%%%%%J%%%%%J%%%%%%J%%%%%J%%%%%J%%%%%J%%
29668D3%%J%%%%%J%%%%J%%%%J%%%%J%%%J%%%%J%%%J%%%J%%%%J%%%J%%J%%%J%%%J%%J%%%J%%J%%
29594F0%J%%J%%J%%J%%J%%J%%J%J%%J%%J%J%%J%J%%J%J%%J%J%J%J%J%%J%J%J%J%J%JJ%J%J%J%J
29520I1J%J%JJ%J%JJ%JJ%JJ%JJ%JJJ%JJJ%JJJJ%JJJJJJ%JJJJJJJJJJJJJJJJJJJJKJJJJJKJJJKJ
29446A55JKJJKJKJKJKJKJKKJKKJKKKJKKKKKKKKKKKKLKKLKKLKLKLLKLLLKLLLMLLLLMLMLMMMLMMM
29372C25NMMNMNMNNNNNONONOOOOPOPPPPPQPQQRQRRRRJ0J0J0J0J1J1J1J2J2J2J3J3J4J4J4J5J5
29318G66J5J7J6J8J7J9J9J9K1K1K1K3K3K4K5K6K7K8K9L0L1L3L4L5L6L8M0M1M4M5M6M9N2N3N6N9
29281A896O1O4O7P1P3P8Q1Q5R0R3R9J03J09J14J20J26J33J39J45J53J60J67J75J83J90J98K05
29253E178K12K19K24K29K33K35K36K34K31K26K16K05J91J74J53J31J05P8N0K1rl8o5r2j16j37
29227H324j55j71j84j94k00k05k06k07k04k01j96j90j82j76j67j59j51j42j33j24j16j07r9r1
29203D364q2p5o7n9n2m5l7l0k4j6rlMJ1J8K5L2L9M6N3O1O9P6Q5R2J01J09J18J26J35J44J52J61
29169E522J69J77J85J91J97K02K05K06K07K04J99J91J82J68J51J33J10Q6O0L1Lk7n7q4j11j36
29143H364j58j78j94k08k19k26k32k35k36k35k32k28k23k17k11k03j96j89j81j73j66j58j52
29119C714j44j37j31j25j18j13j08j02r8r3q8q4q1p6p3p0o6o4o0n8n6n3n1m8m7m4m3m1l9l8l6
29088A329l5l4l2l1l0k8k8k7k5k5k4k3k3k1k1k0k0j8j9j7j7j7j6j6j5j4j4j4j4j3j2j3j1j2j1
29052F19j1j1j0j0j0j0rrrrqqqqqpqppoppooooonononnnnnmnmnmmmnmlmmmlmlmlmllllllllllk
28985B48llklklklkklkkkkkkkljkkkkkkkjkkjkkjkkjkjkjkjjkjjkjjkjjjkjjjjkjjjjjjjjjjjj
28912A29jjjjjjjjjj%jjjjj%jjjj%jjj%jjj%jj%jj%jj%jj%jj%j%j%jj%j%j%jj%j%j%j%j%j%j%%
28838H0j%j%j%j%j%%j%j%%j%j%%j%j%%j%%j%j%%j%%j%%j%%j%%j%%%j%%j%%j%%%j%%j%%%j%%%j%
28764E4%%j%%%j%%%j%%%j%%%%j%%%j%%%%j%%%%j%%%%j%%%%j%%%%j%%%%%j%%%%%j%%%%%j%%%%%j
28690C9%%%%%j%%%%%%j%%%%%%j%%%%%%j%%%%%%%j%%%%%%%j%%%%%%%%j%%%%%%%%j%%%%%%%%j%%%
28616C0%%%%%%j%%%%%%%%%j%%%%%%%%%%j%%%%%%%%%%%j%%%%%%%%%%%j%%%%%%%%%%%%%j%%%%%%%
28541B4%%%%%%j%%%%%%%%%%%%%%j%%%%%%%%%%%%%%%j%%%%%%%%%%%%%%%%%j%%%%%%%%%%%%%%%%%
28467B0%j%%%%%%%%%%%%%%%%%%%j%%%%%%%%%%%%%%%%%%%%%%j%%%%%%%%%%%%%%%%%%%%%%%%j%%%
28393A6%%%%%%%%%%%%%%%%%%%%%%%%j%%%%%%%%%%%%%%%%%%%%%%%%%%%%%%j%%%%%%%%%%%%%%%%%
28319A4%%%%%%%%%%%%%%%%%j%%%%%%%%%%%%%%%%%%%%%%%%%%%%%%%%%%%%%%j%%%%%%%%%%%%%%%%
28244A2%%%%%%%%%%%%%%%%%%%%%%%%%%%%%j%%%%%%%%%%%%%%%%%%%%%%%%%%%%%%%%%%%%%%%%%%%
28170A1%%%%%%%%%%j%%%%%%%%%%%%%%%%%%%%%%%%%%%%%%%%%%%%%%%%%%%%%%%%%%%%%%%%%%%%%%
28096A0%j%%%%%%%%%%%%%%%%%%%%%%%%%%%%%%%%%%%%%%%%%%%%%%%%%%%%%%%%%%%%%%%%%%%%%%%
28022I%%%%%%j%%%%%%%%%%%%%%%%%%%%%%%%%%%%%%%%%%%%%%%%%%%%%%%%%%%%%%%%%%%%%%%%%%%
27946H%%%%%%%%%%%%%%%%%%%%%%%%%%%%%%%%j%%%%%%%%%%%%%%%%%%%%%%%%%%%%%%%%%%%%%%%%%
27871G%%%%%%%%%%%%%%%%%%%%%%%%%%%%%%%%%%%%%%%%%%%%%%%%%%%%%%%%%%%%%%%%%%%%%%%%%%
27796G%%%%%%%%%%%%%%%%j%%%%%%%%%%%%%%%%%%%%%%%%%%%%%%%%%%%%%%%%%%%%%%%%%%%%%%%%%
27720F%%%%%%%%%%%%%%%%%%%%%%%%%%%%%%%%%%%%%%%%%%%%%%%%%%%%%%%%%%%%%%%%%%%%%%%%%%
27645F%%%%%%%%%%%%%%%%%%%%%%%%%%%%%%%%%%%%%%%%%%%%%%%%%%%%%%%%%%%j%%%%%%%%%%%%%%
27570E%%%%%%%%%%%%%%%%%%%%%%%%%%%%%%%%%%%%%%%%%%%%%%%%%%%%%%%%%%%%%%%%%%%%%%%%%%
27495E%%%%%%%%%%%%%%%%%%%%%%%%%%%%%%%%%%%%%%%%%%%%%%%%%%%%%%%%%%%%%%%%%%%%%%%%%%
27419E%%%%%%%%%%%%%%%%%%%%%%%%%%%%%%%%%%%%%%%%%%%%%%%%%%%%%%%%%%%%%%%%%%%%%%%%%%
27344E%%%%%%%%%%%%%%%%%%%%%%%%%%%%%%%%%%%%%%%%%%%%%%%%%%%%%%%%%%%%%%%%%%%%%%%%%%
27269E%%%%%%%%%%%j%%%%%%%%%%%%%%%%%%%%%%%%%%%%%%%%%%%%%%%%%%%%%%%%%%%%%%%%%%%%%%
27193D%%%%%%%%%%%%%%%%%%%%%%%%%%%%%%%%%%%%%%%%%%%%%%%%%%%%%%%%%%%%%%%%%%%%%%%%%%
27118D%%%%%%%%%%%%%%%%%%%%%%%%%%%%%%%%%%%%%%%%%%%%%%%%%%%%%%%%%%%%%%%%%%%%%%%%%%
27043D%%%%%%%%%%%%%%%%%%%%%%%%%%%%%%%%%%%%%%%%%%%%%%%%%%%%%%%%%%%%%%%%%%%%%%%%%%
26968D%%%%%%%%%%%%%%%%%%%%%%%%%%%%%%%%%%%%%%%%%%%%%%%%%%%%%%%%%%%%%%%%%%%%%%%%%%
26892D%%%%%%%%%%%%%%%%%%%%%%%%%%%%%%%%%%%%%%%%%%%%%%%%%%%%%%%%%%%%%%%%%%%%%%%%%%
26817D%%%%%%%%%%%%%%%%%%%%%%%%%%%%%%%%%%%%%%%%%%%%%%%%%%%%%%%%%%%%%%%%%%%%%%%%%%
26742D%%%%%%%%%%%%%%%%%%%%%%%%%%%%%%%%%%%%%%%%%%%%%%%%%%%%%%%%%%%%%%%%%%%%%%%%%%
26667D%%%%%%%%%%%%%%%%%%%%%%%%%%%%%%%%%%%%%%%%%%%%%%%%%%%%%%%%%%%%%%%%%%%%%%%%%%
26591D%%%%%%%%%%%%%%%%%%%%%%%%%%%%%%%%%%%%%%%%%%%%%%%%%%%%%%%%%%%%%%%%%%%%%%%%%%
26516D%%%%%%%%%%%%%%%%%%%%%%%%%%%%%%%%%%%%%%%%%%%%%%%%%%%%%%%%%%%%%%%%%%%%%%%%%%
26441D%%%%%%%%%%%%%%%%%%%%%%%%%%%%%%%%%%%%%%%%%%%%%%%%%%%%%%%%%%%%%%%%%%%%%%%%%%
26365D%%%%%%%%%%%%%%%%%%%%%%%%%%%%%%%%%%%%%%%%%%%%%%%%%%%%%%%%%%%%%%%%%%%%%%%%%%
26290D%%%%%%%%%%%%%%%%%%%%%%%%%%%%%%%%%%%%%%%%%%%%%%%%%%%%%%%%%%%%%%%%%%%%%%%%%%
26215D%%%%%%%%%%%%%%%%%%%%%%%%%%%%%%%%%%%%%%%%%%%%%%%%%%%%%%%%%%%%%%%%%%%%%%%%%%
26140D%%%%%%%%%%%%%%%%%%%%%%%%%%%%%%%%%%%%%%%%%%%%%%%%%%%%%%%%%%%%%%%%%%%%%%%%%%
26064D%%%%%%%%%%%%%%%%%%%%%%%%%%%%%%%%%%%%%%%%%%%%%%%%%%%%%%%%%%%%%%%%%%%%%%%%%%
25989D%%%%%%%%%%%%%%%%%%%%%%%%%%%%%%%%%%%%%%%%%%%%%%%%%%%%%%%%%%%%%%%%%%%%%%%%%%
25914D%%%%%%%%%%%%%%%%%%%%%%%%%%%%%%%%%%%%%%%%%%%%%%%%%%%%%%%%%%%%%%%%%%%%%%%%%%
25838D%%%%%%%%%%%%%%%%%%%%%%%%%%%%%%%%%%%%%%%%%%%%%%%%%%%%%%%%%%%%%%%%%%%%%%%%%%
25763D%%%%%%%%%%%%%%%%%%%%%%%%%%%%%%%%%%%%%%%%%%%%%%%%%%%%%%%%%%%%%%%%%%%%%%%%%%
25688D%%%%%%%%%%%%%%%%%%%%%%%%%%%%%%%%%%%%%%%%%%%%%%%%%%%%%%%%%%%%%%%%%%%%%%%%%%
25613D%%%%%%%%%%%%%%%%%%%%%%%%%%%%%%%%%%%%%%%%%%%%%%%%%%%%%%%%%%%%%%%%%%%%%%%%%%
25537D%%%%%%%%%%%%%%%%%%%%%%%%%%%%%%%%%%%%%%%%%%%%%%%%%%%%%%%%%%%%%%%%%%%%%%%%%%
25462D%%%%%%%%%%%%%%%%%%%%%%%%%%%%%%%%%%%%%%%%%%%%%%%%%%%%%%%%%%%%%%%%%%%%%%%%%%
25387D%%%%%%%%%%%%%%%%%%%%%%%%%%%%%%%%%%%%%%%%%%%%%%%%%%%%%%%%%%%%%%%%%%%%%%%%%%
25312D%%%%%%%%%%%%%%%%%%%%%%%%%%%%%%%%%%%%%%%%%%%%%%%%%%%%%%%%%%%%%%%%%%%%%%%%%%
25236D%%%%%%%%%%%%%%%%%%%%%%%%%%%%%%%%%%%%%%%%%%%%%%%%%%%%%%%%%%%%%%%%%%%%%%%%%%
25161D%%%%%%%%%%%%%%%%%%%%%%%%%%%%%%%%%%%%%%%%%%%%%%%%%%%%%%%%%%%%%%%%%%%%%%%%%%
25086D%%%%%%%%%%%%%%%%%%%%%%%%%%%%%%%%%%%%%%%%%%%%%%%%%%%%%%%%%%%%%%%%%%%%%%%%%%
25010D%%%%%%%%%%%%%%%%%%%%%%%%%%%%%%%%%%%%%%%%%%%%%%%%%%%%%%%%%%%%%%%%%%%%%%%%%%
24935D%%%%%%%%%%%%%%%%%%%%%%%%%%%%%%%%%%%%%%%%%%%%%%%%%%%%%%%%%%%%%%%%%%%%%%%%%%
24860D%%%%%%%%%%%%%%%%%%%%%%%%%%J%%%%%%%%%%%%%%%%%%%%%%%%%%%%%%%%%%%%%%%%%%%%%%%
24785E%%%%%%%%%%%%%%%%%%%%%%%%%%%%%%%%%%%%%%%%%%%%%%%%%%%%%%%%%%%%%%%%%%%%%%%%%%
24709E%%%%%%%%%%%%%%%%%%%%%%%%%%%%%%%%%%%%%%%%%%%%%%%%%%%%%%%%%%%%%%%%%%%%%%%%%%
24634E%%%%%%%%%%%%%%%%%%%%%%%%%%%%%%%%%%%%%%%%%%%%%%%%%%%%%%%%%%%%%%%%%%%%%%%%%%
24559E%%%%%%%%%%%%%%%%%%%%%%%%%%%%%%%%%%%%%%%%%%%%%%%%%%%%%%%%%%%%%%%%%%%%%%%%%%
24483E%%%%%%%%%%%%%%%%%%%%%%%%%%%%%%%%%%%%%%%%%%%%%%%%%%%%%%%%%%%%%%%%%%%%%%%%%%
24408E%%%%%%%%%%%%%%%%%%%%%%%%%%%%%%%%%%%%%%%%%%%%%%%%%%%%%%%%%%%%%%%%%%%%%%%%%%
24333E%%%%%%%%%%%%%%%%%%%%%%%%%%%%%%%%%%%%%%%%%%%%%%%%%%%%%%%%%%%%%%%%%%%%%%%%%%
24258E%%J%%%%%%%%%%%%%%%%%%%%%%%%%%%%%%%%%%%%%%%%%%%%%%%%%%%%%%%%%%%%%%%%%%%%%%%
24182F%%%%%%%%%%%%%%%%%%%%%%%%%%%%%%%%%%%%%%%%%%%%%%%%%%%%%%%%%%%%%%%%%%%%%%%%%%
24107F%%%%%%%%%%%%%%%%%%%%%%%%%%%%%%%%%%%%%%%%%%%%%%%%%%%%%%%%%%%%%%%%%%%%%%%%%%
24032F%%%%%%%%%%%%%%%%%%%%%%%%%%%%%%%%%%%%%%%%%%%%%%%%%%%%%%%%%%%%%%%%%%%%%%%%%%
23957F%%%%%%%%%%%%%%%%%%%%%%%%%%%%%%%%%%%%%%%%%%%%%%%%%%%%%%%%%%%%%%%%%%%%%%%%%%
23881F%%%%%%%%J%%%%%%%%%%%%%%%%%%%%%%%%%%%%%%%%%%%%%%%%%%%%%%%%%%%%%%%%%%%%%%%%%
23806G%%%%%%%%%%%%%%%%%%%%%%%%%%%%%%%%%%%%%%%%%%%%%%%%%%%%%%%%%%%%%%%%%%%%%%%%%%
23731G%%%%%%%%%%%%%%%%%%%%%%%%%%%%%%%%%%%%%%%%%%%%%%%%%%%%%%%%%%%%%%%%%%%%%%%%%%
23655G%%%%%%%%%%%%%%%%%%%%%%%%%%%%%%%%%%%%%%%%%%%%%%%%%%%%%%%%%%%%%%%J%%%%%%%%%%
23580H%%%%%%%%%%%%%%%%%%%%%%%%%%%%%%%%%%%%%%%%%%%%%%%%%%%%%%%%%%%%%%%%%%%%%%%%%%
23505H%%%%%%%%%%%%%%%%%%%%%%%%%%%%%%%%%%%%%%%%%%%%%%%%%%%%%%%%%%%%%%%%%%%%%%%%%%
23430H%%%%%%%%%%%%%%%%%%%%%%%%%%%%%%%%%%%%%%%%%%%%%%%%%%%%%%%%%%J%%%%%%%%%%%%%%%
23354I%%%%%%%%%%%%%%%%%%%%%%%%%%%%%%%%%%%%%%%%%%%%%%%%%%%%%%%%%%%%%%%%%%%%%%%%%%
23279I%%%%%%%%%%%%%%%%%%%%%%%%%%%%%%%%%%%%%%%%%%%%%%%%%%%%%%%%%%%%%%%%%%%%%%%%%%
23204I%%%%%%%%%%%J%%%%%%%%%%%%%%%%%%%%%%%%%%%%%%%%%%%%%%%%%%%%%%%%%%%%%%%%%%%%%%
23128A0%%%%%%%%%%%%%%%%%%%%%%%%%%%%%%%%%%%%%%%%%%%%%%%%%%%%%%%%%%%%%%%%%%%%%%%%%
23054A0%%%%%%%%%J%%%%%%%%%%%%%%%%%%%%%%%%%%%%%%%%%%%%%%%%%%%%%%%%%%%%%%%%%%%%%%%
22980A1%%%%%%%%%%%%%%%%%%%%%%%%%%%%%%%%%%%%%%%%%%%%%%%%%%%%%%%%%%%J%%%%%%%%%%%%%
22906A2%%%%%%%%%%%%%%%%%%%%%%%%%%%%%%%%%%%%%%%%%%%%%%%%%%%%%%%%%%%%%%%%%%%%%%%%%
22831A2%%%%%%%%%%%%%%%%%%%J%%%%%%%%%%%%%%%%%%%%%%%%%%%%%%%%%%%%%%%%%%%%%%%%%%%%%
22757A3%%%%%%%%%%%%%%%%%%%%%%%%%%%%%%%%%%%%%%J%%%%%%%%%%%%%%%%%%%%%%%%%%%%%%%%%%
22683A4%%%%%%%%%%%%%%%%%%%%%%%%%%%%%%%%%%%%%%%%%%%%%%J%%%%%%%%%%%%%%%%%%%%%%%%%%
22609A5%%%%%%%%%%%%%%%%%%%%%%%%%%%%%%%%%%%%%%%%%%%%%%J%%%%%%%%%%%%%%%%%%%%%%%%%%
22534A6%%%%%%%%%%%%%%%%%%%%%%%%%%%%%%%%%%%%%J%%%%%%%%%%%%%%%%%%%%%%%%%%%%%%%%%%%
22460A7%%%%%%%%%%%%%%%%%%%%%%%J%%%%%%%%%%%%%%%%%%%%%%%%%%%%%%%%%%%%%%%%%%%%%%%%%
22386A8%%%J%%%%%%%%%%%%%%%%%%%%%%%%%%%%%%%%%%%%%%%%%%%%%%%J%%%%%%%%%%%%%%%%%%%%%
22312B0%%%%%%%%%%%%%%%%%%%%%%J%%%%%%%%%%%%%%%%%%%%%%%%%%%%%%%%%%%%%%%%J%%%%%%%%%
22237B2%%%%%%%%%%%%%%%%%%%%%%%%%%%J%%%%%%%%%%%%%%%%%%%%%%%%%%%%%%%%%%J%%%%%%%%%%
22163B4%%%%%%%%%%%%%%%%%%%%%J%%%%%%%%%%%%%%%%%%%%%%%%%%%%%J%%%%%%%%%%%%%%%%%%%%%
22089B6%%%%%%J%%%%%%%%%%%%%%%%%%%%%%%%%%J%%%%%%%%%%%%%%%%%%%%%%%J%%%%%%%%%%%%%%%
22015B9%%%%%%%%J%%%%%%%%%%%%%%%%%%%%%J%%%%%%%%%%%%%%%%%%%J%%%%%%%%%%%%%%%%%%%J%%
21940C3%%%%%%%%%%%%%%%J%%%%%%%%%%%%%%%%%J%%%%%%%%%%%%%%%%J%%%%%%%%%%%%%%%J%%%%%%
21866C7%%%%%%%%J%%%%%%%%%%%%%J%%%%%%%%%%%%%J%%%%%%%%%%%%J%%%%%%%%%%%%J%%%%%%%%%%
21792D2%J%%%%%%%%%%%J%%%%%%%%%%J%%%%%%%%%%J%%%%%%%%%J%%%%%%%%%J%%%%%%%%J%%%%%%%%
21718D9%J%%%%%%%J%%%%%%%%J%%%%%%%J%%%%%%%J%%%%%%%J%%%%%%J%%%%%%J%%%%%%J%%%%%%J%%
21643E9%%%%J%%%%%J%%%%%J%%%%%J%%%%%J%%%%J%%%%%J%%%%J%%%%J%%%%J%%%%J%%%%J%%%J%%%%
21569G2J%%%J%%%J%%%%J%%%J%%%J%%J%%%J%%%J%%J%%%J%%J%%%J%%J%%J%%J%%J%%J%%J%%J%%J%%
21495I3J%J%%J%%J%J%%J%J%J%%J%J%J%J%%J%J%J%J%J%J%J%JJ%J%J%J%JJ%J%JJ%JJ%J%JJ%JJJ%J
21420A31J%JJJ%JJJJ%JJJJJ%JJJJJJJJJJJJJJJJJJJJJJKJJJJKJJKJJKJJKJKJKJKJKKJKKJKKKKK
21347B16KKKKKKKKKLKKLKLKLLKLLLLLLLLMLMLMLMMMMMMNMNNMNONNONOOOPOPPPPQPQRQRRJ0RJ0
21277E29J1J1J1J1J2J3J3J3J4J4J5J6J6J6J8J8J9K0K0K2K2K3K5K5K7K8K9L0L2L4L5L7L8M1M2M5
21240A345M7M9N2N4N8O0O3O6O9P3P7Q0Q3Q8R1R5R9J02J06J08J11J14J15J15J16J15J12J09J03
21211C875R8Q9Q1O9N8M5L0J6Kj4k8m2n5o6p7q5r3r9j04j07j09j09j09j09j06j05j01r8r5r1q7
21179B474q3q0p5p2o8o4o1n7n4n1m8m5m2l9l7l4l2l0k7k5k3k1k0j7j6j4j2j0rpomkj%LLOPRJ0
21138A326J2J4J5J8J9K1K4K5K7K9L2L4L6L8M0M2M5M7M8N0N2N3N4N4N5N4N2N1M9M5M1L7L1K5J9
21102B614J2Mkj0j7k3k9l5l9m3m7m9n1n2n3n2n3n1n0m8m7m5m2m1l8l6l4l2k9k7k5k3k1j8j7j4
21065A437j3j1rpnlk%KMOPRJ2J3J4J7J9K1K3K5K7K9L2L4L6L8M1M3M5M7M9N1N3N4N5N6N6N6N4N4
21024B469N1M8M4M0L5K9K2J6RKoj2j9k5l0l5m0m2m6m7m8m9m9m8m7m7m4m3m0l9l6l3l1k9k6k4k1
20986A809j8j6j4j1ronj%LOPJ0J3J4J8J9K2K5K7L0L2L5L7M0M2M5M7M9N1N4N4N6N7N7N7N6N5N2
20946B799N0M6M1L7L1K5J8J1Mkj0j6k1k7l1l6l8m1m2m3m4m3m3m1m0l8l6l3l1k9k6k3k1j7j5j2
20910B263j0omkKMPJ0J2J5J8K0K3K6K9L2L5L8M1M5M7N2N4N9O2O7P0P5P9Q4Q9R4R8J04J09J15
20873C856J20J26J32J37J42J48J53J57J62J65J69J71J72J73J73J71J68J65J60J54J47J38J29
20850G388J19J08R6Q3P0N6M2K9J5Lj0k1l0l9m5m9n3n3n3n0m6m1l5k7j8j0JJ0K0L0M0M9N8O6P2
20814G775P9Q3Q7Q9Q9Q8Q6Q2P7P1O5N7N1M4L7L1K6K2J9J7J5J4J4J3J3J1J0QMjoj4k3l2m3n3o6
20777H839p8r0j01j14j24j35j45j53j62j68j75j79j83j86j88j88j88j86j84j81j78j73j68j63
20752E049j57j51j46j39j33j28j21j15j10j04r8r3q9q3p8p4o9o5o1n7n3n0m6m2l9l6l3k9k7k3
20722B600k1j7j5j2roljKNQJ1J4J6K0K2K5K8L1L4L6L8M1M3M4M6M7M7M7M6M5M3M0L6L2K7K2J5QK
20681C437nj1j9k4l0l5l9m3m6m7m9n0n0m9m9m7m5m4m1l8l7l3l1k8k5k2k0j6j4j1qnl%LORJ1J4
20641B466J7K0K3K6K9L1L5L8M1M5M7N1N5N7O1O5O7P1P4P6Q0Q1Q4Q5Q6Q6Q7Q6Q4Q3Q0P6P3O9O5
20606D600O0N7N2M8M6M4M2M1M2M3M5M9N3N7O3P0P6Q4R1J00J07J16J24J31J40J47J53J60J64J69
20575G174J71J72J73J71J67J62J56J48J38J28J15J03Q9P5O1M6L2J6Kj3k7m2n6o9q2r3j04j14
20547H699j22j29j33j37j39j39j37j35j32j27j21j16j09j04r7r0q6q0p6p2o9o7o6o6o5o7o8o9
20518E881p0p2p3p4p4p4p3p2o9o7o3n8n4m9m4l7l1k5j8j1mLJ0J8K4L2L9M5N3N8O4P0P5P8Q2Q4
20482E504Q5Q5Q4Q0P7P0O4N4M4L3K1Qmj7l0m1n2o2o9p6q1q5q7q7q7q5q2p8p3o8o2n6m9m1l5k7
20445D775j9j2mMJ1J9K6L3L9M6N2N7O1O5O7P0O9O9O6O3N7N0M1L2K0Qnj9l2m6n9p0q2r2j01j07
20408E152j13j18j20j22j22j22j21j18j16j12j08j05j00r6r1q7q3p8p4p0o5o2n7n4n1m6m4m0l7
20379B620l4l1k8k5k3k0j7j5j2j0qnl%KMORJ2J3J7J8K2K4K6L0L2L5L8M2M4M8N2N5N9O3O6P1P5
20339C252Q0Q3Q9R3R7J02J06J11J14J18J21J24J26J27J27J27J24J21J16J10J02R3Q3P2N9M6L3
20312E956J9Poj7k8l7m4n0n5n7n8n8n7n4n0m6m0l4k7k0j3nMJ2K0K9L8M6N6O4P2Q1Q8R7J04J11
20275F048J16J23J26J31J32J34J34J32J29J25J19J13J05R7Q8Q0P1O2N6N0M5M1M0L9M0M2M5M9N3
20246H565N9O3O8P2P5P7P9P8P6P3O8O1N3M3L4K2J0lj6l0m4n8p1q7j00j14j29j42j54j67j78j87
20213H096j96k04k09k13k16k17k16k15k13k08k05j99j93j87j81j74j67j61j54j47j40j35j28
20190C818j22j17j11j05j01r6r1q7q3p9p5p1o9o5o2n9n6n4n1m9m7m4m3m1l9l7l5l4l2l1l0k8k7
20156A747k6k4k4k2k1k1j9j9j7j7j6j5j5j3j3j3j1j1j0j0rqqpooonmmllkkjj%%JJKKLMMMNOOPP
20104A387QRRJ0J0J1J2J3J3J4J5J5J7J7J8K0K0K1K2K3K4K6K7K8K9L1L2L4L5L7L9M1M2M5M7M9N1
20066B301N4N7N9O2O6O8P2P6Q0Q3Q8R2R7J01J07J12J18J23J30J35J42J49J55J62J69J76J82J88
20038E404J95K00K05K09K13K15K15K16K14K11K07K00J93J83J73J62J49J37J22J09R5Q0O6N2L8
20013I463K4J1lj5k7l8m8n8o4p1p5p8q0p9p8p6p2o7o3n8n3m9m6m2m1m0m2m4m8n3o0o7p5q4r3
19977G611j01j10j16j24j28j32j35j35j36j34j31j27j22j17j11j03r6q9q0p2o3n5m6l7k8k0j2l
19948E048MJ3K0K6L4L9M4M9N1N5N5N4N3N0M4L8L0K1J0lj5k8m2n5o8q0r1j02j10j18j23j28j30
19915D645j33j33j33j32j30j27j23j21j16j13j08j04r9r6r1q7q3q0p5p2o9o5o2n9n6n3n1m8m6
19885A980m4m1l9l8l5l4l2l1k9k8k6k5k3k3k1k0j9j8j7j6j5j4j3j2j2j0j0j0qqponnmmkkk%%%K
19842A274KKMMNOOQQRRJ1J2J2J4J4J6J6J8J9K0K1K3K5K5K8K8L1L2L5L6L8M1M3M5M8N0N4N6N9O3
19800B270O5P0P3P6Q1Q4Q8R2R7J00J03J08J10J14J16J17J19J19J18J16J12J08J02R5Q5P5O4N1
19771D928L7K2Rok0l4m6n7o7p5q3q8r2r4r6r6r5r4r1q8q4q0p6p2o6o2n7n2m6m2l7l2k7k2j8j2q
19734B981lJPJ1J5K1K6L0L5M1M5N1N7O2O7P4Q0Q5R2R9J05J12J19J25J32J39J46J52J58J64J69
19702E398J73J76J79J80J80J79J76J71J66J57J48J37J25J12R8Q2O7N1L5J8Kj6l1m9o4q1r6j11
19674G562j26j39j52j62j72j79j86j91j94j96j96j95j92j90j86j81j76j70j65j59j52j46j40
19650C617j34j28j22j17j11j06j01r6r2q7q3p9p6p1o9o5o3n9n7n4n2m9m7m5m4m1m0l7l7l5l3l2
19618A355l1k9k9k7k6k5k4k4k2k2k0k0k0j8j8j7j7j6j5j5j5j4j3j3j2j3j1j2j0j1j0j0rrrrqqq
19578G16ppppoooononmnmnmmlmllllklkkkkjkjjj%j%%%%%JJJJJKJKKLKLLMLMMNMNNOOOPPPQQQR
19505G12J0J0J0J1J2J2J2J4J4J5J5J6J7J8J9K0K1K2K2K5K5K7K8L0L1L2L5L6L9M0M3M4M8M9N3N5
19468A642N8O1O4O8P1P5P8Q2Q6Q9R3R7J00J04J06J09J11J12J12J13J10J08J04R9R1Q4P3O2N0L7
19438D249K2Ppk2l7n0o2p4q4r3r9j05j10j12j14j14j14j13j11j08j06j03r9r5r2q8q4q1p7p3p0
19406A781o7o4o0n8n4n2n0m7m5m2m1l9l7l5l3l2l0l0k7k7k5k4k3k3k1k0k0j8j8j8j6j6j5j5j4
19371F25j3j4j2j2j2j1j1j0j1rj0rrqrqpqppppooooononnnnnmnmmmmmmmlmlmlllllllllklklkl
19308B55kklkkkkkkkkkkkjkkkjkjkjkjkjkjjkjjkjjjjkjjjjjjjjjjjjjjjjjjj%jjjj%jjj%jjj%
19234A61jj%jj%jj%j%jj%j%j%jj%j%j%j%j%%j%j%j%j%%j%j%%j%%j%j%%j%%j%%j%%%j%%j%%%j%%
19161A29%j%%%j%%%j%%%%j%%%%j%%%%%j%%%%%j%%%%%%%j%%%%%%%%j%%%%%%%%%%%%j%%%%%%%%%%
19088A19%%%%%%%%%%%%%%%%%%%%%%%%%%J%%%%%%%%%%%%J%%%%%%%J%%%%%%J%%%%%J%%%%J%%%J%%
19015A26%J%%%J%%J%%%J%%J%J%%J%%J%J%%J%J%J%J%J%J%JJ%J%JJ%JJ%JJ%JJJJ%JJJJJJJJ%JKJJ
18941A67JJJJJKJJKJJKJKJKJKKJKKKKKKKKKLKKLKLLKLLLLLMLMLMMMMNMNMNNONOOOOPPPQPQRRRR
18868D20J0J1J1J1J2J2J3J4J4J5J6J6J7J8J9K0K1K2K3K4K6K7K8L0L1L2L5L6L8L9M2M3M5M7M9N1
18832A338N2N4N5N6N7N7N7N6N5N4N0M8M3L9L3K8K0J4Ojrj6k3k9l5m0m4m8n2n3n5n6n6n7n5n5n4
18794A434n2n1m9m7m6m3m2m0l8l6l5l3l1l0k8k6k6k4k3k2k0k0j9j7j7j6j5j5j3j3j3j2j1j1j0r
18757D81j0rqqqppopononnnmnmmlmllllllkklkkjkkjkjjjjjj%jj%%j%%%%%%%J%J%JJ%JJJJJKJJ
18685C22KJKKJKKKKLKKLKLLLLLLMLMLMMMNMNMNNONOOOOOPPPPQQQRRRRJ0J1J0J1J2J2J2J3J4J4
18623F70J5J5J6J6J8J8J8K0K0K2K2K4K4K6K7K8L0L1L2L4L6L8L9M1M4M6M8N1N3N6N9O2O5O8P2P5
18586A979P9Q2Q6R0R4R7J01J04J07J10J12J13J14J14J13J11J07J02R6Q7P9O7N6M2K9J4jj6l1m4
18556D193n7o9p9q8r6j02j06j10j12j13j12j12j10j07j05j02r8r5r2q7q4q0p6p3o9o6o3n9n7n4
18525A560n1m8m6m4m1l9l8l5l4l2l0k9k7k7k4k4k2k2k0j9j9j7j7j6j5j4j4j3j2j2j1j1j0j0rrq
18488F91qpqopononmnmmlmlklkkkkjjjjj%%%%JJ%KJJKKKLKLLLMLMMNNNNNOOOPPPQQQRRJ0J0J0
18419G65J1J1J2J3J3J3J5J4J6J6J7J8J8K0K0K2K2K3K5K5K7K9K9L1L3L4L6L7M0M1M3M5M7M9N2N3
18382A735N6N8N9O2O3O5O7O7O8O7O8O6O5O3O0N6N1M7M0L5K8K1J5QKmj0j4j9k1k4k6k6k6k6k5k3
18344B748k1j9j5j2rnkLPJ1J5J9K4K7L3L6M0M4M8N2N4N8O0O3O4O5O6O5O5O3O1N7N5N0M5M2L6L1
18306D024K8K3K0J6J5J4J3J3J5J7J9K2K5L0L4L8M2M7N1N4N8O1O3O5O6O6O6O5O4O3O0N8N6N4N1
18270E476N0M9M7M7M5M5M3M2L9L7L4K8K3J5Pkj3k5l6n0o1p4q6r7j06j16j22j29j34j36j39j39
18237D562j39j38j35j33j29j26j21j17j13j08j03r8r4r0q5q0p7p2o9o5o1n9n4n2m9m6m4m0l9l6
18207A990l4l2k9k8k6k4k3k1j9j8j6j5j4j2j1rrponmkk%%KLLNOQQRJ1J1J3J4J5J6J8J9K0K2K3
18162A850K5K6K8K9L1L3L5L7L8M1M3M6M8N0N3N6N9O2O5O9P2P6Q0Q3Q9R2R7J02J07J11J17J22
18130C872J27J32J38J42J47J52J55J59J62J63J65J64J63J61J56J52J45J38J29J20J09J00Q9P9
18105G219P0O2N5M9M6M4M4M5M8N3N9O6P4Q4R3J03J12J23J32J41J48J54J59J61J61J59J54J45
18077I963J34J20J03Q2O1L6J1j5m1o7r2j14j34j52j68j79j89j94j98j98j97j93j88j81j72j62
18050G676j53j41j30j19j06r5q3p1o0n0l9k9k1j2o%MPRQOLkj0j7k8l8n0o2p4q5r7j08j16j25
18015E786j32j38j41j45j46j46j45j44j42j38j35j31j27j22j18j13j08j03r9r4r0q5q1p7p4o9
17988B743o6o3n9n6n4n0m8m5m2m0l8l6l3l2k9k8k6k4k3k1j9j8j6j5j3j2j1j0qoomlk%JKMMPPR
17945A821J0J2J3J5J6J8J9K1K3K5K6K9L1L3L5L7M0M3M5M8N1N4N7O0O4O8P2P5Q0Q4Q8R3R7J02
17911C405J07J11J16J20J24J28J31J34J36J37J37J37J35J31J27J21J13J05R5Q4P2O0M8L6K4J3L
17883F090nj2j8k2k5k5k5k3k1j7j2plLQJ3J7K0K3K4K4K4K0J7J1Nmj3k3l4m5n6o8p9q8r8j06j13
17845E357j19j24j26j29j29j30j28j26j24j20j17j12j08j04r9r4q9q5q0p4p1o6o1n7n3m9m5m1
17816B697l7l4l0k6k3k0j6j3j0pl%LORJ3J6J9K2K6K9L2L6L9M2M6M9N2N5N8O1O3O4O7O7O8O8O8
17778C556O6O4O1N8N4N0M5M1L5L1K6K1J9J5J4J2J2J2J4J6J8K2K6L1L5M0M5N0N4N9O3O5O9O9P0
17742D938O9O7O3N7N1M2L2K1Rmj7l1m5n8p0q1r2j00j08j13j18j22j23j24j24j22j21j18j15j11
17712C432j08j03j00r5r1q7q3p9p4p1o7o4o0n7n3n1m8m4m3l9l8l5l2l1k9k6k5k3k2j9j8j7j5j3
17677A672j2j1j0qpnnlk%%KLMNOQRJ0J2J2J4J6J7J8K0K1K3K5K6K8L0L2L4L6L8M0M3M5M8N1N3N7
17633B395N9O3O7P0P3P8Q2Q6R0R5R9J04J08J13J18J22J26J30J34J37J39J42J41J42J41J38J34
17606E326J28J23J14J04R5Q3P2N9M7L5K3J4Mlrj4j7j7j7j5j1p%PJ5K5L3M4N5O5P6Q8R9J10J21
17570F855J31J41J50J57J64J70J72J74J72J69J62J53J40J25J06Q5O0L5Qk1m9p8j04j30j53j74
17544H620j93k07k20k30k36k41k42k42k41k37k32k27k20k14k06j98j90j82j75j67j59j52j44
17520C865j38j31j25j19j13j07j02r7r3q7q4q0p5p3o8o6o2n9n7n4n2m9m7m4m3m1l9l7l6l4l2l1
17488A590l0k8k7k6k4k4k2k2k0k0j8j8j7j6j5j5j3j3j2j2j1j0j0qrppponnmlllkjj%JJKKLLNMO
17439A123OPPRRJ0J0J2J2J4J4J5J7J7J8K0K1K2K3K5K7K7L0L1L3L5L7L9M1M3M6M9N1N4N7O0O4O7
17400B202P0P4P8Q3Q6R1R5R9J04J09J12J17J21J25J28J31J32J34J35J33J32J29J24J18J11J02
17374E075R2Q2O9N6M4L0J8Ooj6k6l4m1m6n1n6n8o0o3o5o7o9p1p3p7q0q3q7r1r4r8j01j03j06
17339C750j08j09j09j09j09j07j06j03j02r8r6r2q9q6q3p9p6p2p0o6o4o1n7n6n2n1m8m6m3m2m0
17308A321l8l7l4l4l2l0k9k8k7k6k4k4k3k2k1k0j9j9j8j7j7j6j5j5j4j4j4j3j2j2j2j1j1j1j0
17272F02j0j0rrrqrqpqpppppoooooonnonnmnnmmnmmmmlmmlmlllmlllklllklklklkkklkkkkkkjk
17201B85kkkjkkjkjkjkjjkjjjkjjjjjjkjjj%jjjjjj%jjj%jj%jj%j%j%j%j%j%j%%j%%j%%%%j%%%
17128B23%%%j%%%%%%J%%%%%%J%%%J%%J%%J%J%J%J%J%JJ%JJJ%JJJJJJJJJJJKJJJKJJKJKJKKKJKK
17054B73KKKKKKLKKLKLLLKLLMLLLMLMMMMMMNMNNNNNOONOPOPPPPQQQQRRJ0J0J0J0J1J1J2J2J3J3
16991F18J4J5J4J6J6J7J8J8J9K0K1K2K3K4K5K6K7K9L0L2L3L5L6L9M0M2M5M6N0N1N5N7O0O3O6P0
16955A832P3P7Q0Q4Q8R1R6R8J03J05J08J11J13J14J14J14J12J09J06J00R2Q5P4O4N0L8K3Qpk1
16924D234l6m9o2p2q3r1r8j04j07j11j12j12j12j10j09j06j04j00r6r3q9q6q2p8p4p1o7o4o1n7
16894A638n5n2m9m6m4m2m0l7l6l3l2l0k9k7k6k4k3k1k1j9j8j7j7j5j4j4j3j2j1j0j0rqqpponnm
16853G42mlkkkjj%JJJKLLMMMONPPPRRRJ1J1J2J2J4J4J5J6J7J8J9K1K1K3K4K5K7K8L0L2L3L6L7
16804A305L9M2M3M7M8N2N4N7O1O3O7P0P4P8Q1Q5Q9R2R6J00J03J06J08J10J12J12J12J11J08J04
16774C729R9R2Q4P4O4N1L7K3Rok1l5m9o2p3q3r2r9j04j09j12j14j14j14j13j11j08j06j03r9r6
16742B339r2q8q4q1p7p3p0o7o4o0n7n5n2m9m7m5m3m0l9l6l5l3l2l0k9k8k6k5k4k3k1k1k0j9j9
16706G35j7j7j6j6j4j5j3j3j3j2j2j1j1j0j0j0rrqrpqqppopooonnonnmnmmmmmmlmlllllkllkkl
16649C26kkkkjkkjkjkjjjjjjjjj%j%j%%j%%%%%%%%J%%J%JJJ%JJJJJKJJKJKKKJKKLKKLKLKLLLLM
16576C56LMLMMMNMNMNNONOOOOPOQPPQRQRRJ0J0J0J1J1J1J2J3J3J4J4J5J5J6J7J8J8J9K0K1K2K3
16525H52K4K5K6K8K8L1L2L3L5L7L9M0M3M5M7N0N2N5N8O1O4O7P0P4P8Q1Q5Q8R3R6J00J03J06J09
16491B855J11J13J14J14J13J11J09J03R8R0Q2P1N9M7L3J8Mj1k6m0n3o5p7q5r4j00j05j08j11
16461C370j13j12j12j10j08j06j02r9r6r2q8q5q0p7p4p0o6o3o0n7n4n1m9m6m3m1l9l7l6l3l1l0
16429A110k8k7k5k4k3k1k0k0j8j7j6j5j4j4j2j2j1j1rrrppponnmmlkkkjj%JJJKLLMMMONPPQQR
16376G72J0J0J1J2J3J3J5J5J6J7J9J9K0K2K3K4K6K7K8L1L2L3L6L8L9M2M5M7M9N2N5N8O1O4O8P1
16339A933P5P8Q2Q6R0R3R7J01J03J07J08J11J12J12J11J10J07J02R7R0Q1P1N9M7L3J9Mj1k6l9
16309D143n3o6p6q6r5j01j06j10j13j14j15j14j12j11j08j05j02r9r4r1q8q3q0p7p2p0o6o3o0
16279A513n7n4n1m9m7m4m3m0l8l7l4l3l2l0k9k7k7k5k4k3k2k1k0j9j9j8j7j6j6j5j4j4j4j3j2
16244E19j2j2j1j1j0j0j0rrrqqqqpqpopooooononnnnmnmmmnlmmmlmlmlllllllkllklklkklkkkk
16177A79kkkkkkkjkkkjkjkkjkjjkjkjjjkjjjkjjjjjjjjjjjjjjjjjjjjj%jjjj%jjj%jjj%jj%jj%
16104I5jj%jj%j%jj%j%j%j%j%j%j%j%j%j%j%j%%j%j%j%%j%j%%j%j%%j%%j%%j%%j%%j%%j%%j%%%
16030F3j%%j%%%j%%j%%%j%%%j%%%j%%%j%%%%j%%%j%%%%j%%%%j%%%%j%%%%j%%%%j%%%%%j%%%%%j
15956D6%%%%%j%%%%%%j%%%%%j%%%%%%%j%%%%%%j%%%%%%%j%%%%%%%j%%%%%%%j%%%%%%%%j%%%%%%
15881C7%%%j%%%%%%%%%j%%%%%%%%%%j%%%%%%%%%%j%%%%%%%%%%%j%%%%%%%%%%%j%%%%%%%%%%%%%
15807C1j%%%%%%%%%%%%%j%%%%%%%%%%%%%%%j%%%%%%%%%%%%%%%j%%%%%%%%%%%%%%%%%j%%%%%%%%
15733B6%%%%%%%%%%j%%%%%%%%%%%%%%%%%%%%j%%%%%%%%%%%%%%%%%%%%%%j%%%%%%%%%%%%%%%%%%
15659B3%%%%%j%%%%%%%%%%%%%%%%%%%%%%%%%%j%%%%%%%%%%%%%%%%%%%%%%%%%%%%j%%%%%%%%%%%
15584B0%%%%%%%%%%%%%%%%%%%%j%%%%%%%%%%%%%%%%%%%%%%%%%%%%%%%%%%j%%%%%%%%%%%%%%%%%
15510A8%%%%%%%%%%%%%%%%%%%%%%j%%%%%%%%%%%%%%%%%%%%%%%%%%%%%%%%%%%%%%%%%%%j%%%%%%
15436A6%%%%%%%%%%%%%%%%%%%%%%%%%%%%%%%%%%%%%%%%%%j%%%%%%%%%%%%%%%%%%%%%%%%%%%%%%
15362A5%%%%%%%%%%%%%%%%%%%%%%%%%j%%%%%%%%%%%%%%%%%%%%%%%%%%%%%%%%%%%%%%%%%%%%%%%
15287A4%%%%%%%%%%%%%%%j%%%%%%%%%%%%%%%%%%%%%%%%%%%%%%%%%%%%%%%%%%%%%%%%%%%%%%%%%
15213A3%%%%%%%%%%%%%%%j%%%%%%%%%%%%%%%%%%%%%%%%%%%%%%%%%%%%%%%%%%%%%%%%%%%%%%%%%
15139A2%%%%%%%%%%%%%%%%%%%%%%%%%%%j%%%%%%%%%%%%%%%%%%%%%%%%%%%%%%%%%%%%%%%%%%%%%
15065A1%%%%%%%%%%%%%%%%%%%%%%%%%%%%%%%%%%%%%%%%%%%%%%%%%%%%%j%%%%%%%%%%%%%%%%%%%
14990A0%%%%%%%%%%%%%%%%%%%%%%%%%%%%%%%%%%%%%%%%%%%%%%%%%%%%%%%%%%%%%%%%%%%%%%%%%
14916A0%%%%%%%%%%%%%%%%%%%%%%%%%j%%%%%%%%%%%%%%%%%%%%%%%%%%%%%%%%%%%%%%%%%%%%%%%
14842I%%%%%%%%%%%%%%%%%%%%%%%%%%%%%%%%%%%%%%%%%%%%%%%%%%%%%%%%%%%%%%%%%%%%%%%%%%
14767I%%%%%%%%%%%%%%%%%%%%j%%%%%%%%%%%%%%%%%%%%%%%%%%%%%%%%%%%%%%%%%%%%%%%%%%%%%
14691H%%%%%%%%%%%%%%%%%%%%%%%%%%%%%%%%%%%%%%%%%%%%%%%%%%%%%%%%%%%%%%%%%%%%%%%%%%
14616H%%%%%%%%%%%%%%%%%%%%%%%%%%%%%%%%%%%%%%%%%%%%%%%%j%%%%%%%%%%%%%%%%%%%%%%%%%
14541G%%%%%%%%%%%%%%%%%%%%%%%%%%%%%%%%%%%%%%%%%%%%%%%%%%%%%%%%%%%%%%%%%%%%%%%%%%
14465G%%%%%%%%%%%%%%%%%%%%%%%%%%%%%%%%%%%%%%%%%%%%%%%%%%%%%%%%%%%%%%%%%%%%%%%%%%
14390G%%%%%%%%%%%%%%%%%%%%%%%%%%%%%%%%%%%%%%%%%%%%%%%j%%%%%%%%%%%%%%%%%%%%%%%%%%
14315F%%%%%%%%%%%%%%%%%%%%%%%%%%%%%%%%%%%%%%%%%%%%%%%%%%%%%%%%%%%%%%%%%%%%%%%%%%
14240F%%%%%%%%%%%%%%%%%%%%%%%%%%%%%%%%%%%%%%%%%%%%%%%%%%%%%%%%%%%%%%%%%%%%%%%%%%
14164F%%%%%%%%%%%%%%%%%%%%%%%%%%%%%%%%%%%%%%%%%%%%%%%%%%%%%%%%%%%%%%%%%%%%%%%%%%
14089F%%%%%%%%%%%%%%%%%%%%%%%%%%%%%%%%%%%%%%%%%j%%%%%%%%%%%%%%%%%%%%%%%%%%%%%%%%
14014E%%%%%%%%%%%%%%%%%%%%%%%%%%%%%%%%%%%%%%%%%%%%%%%%%%%%%%%%%%%%%%%%%%%%%%%%%%
13938E%%%%%%%%%%%%%%%%%%%%%%%%%%%%%%%%%%%%%%%%%%%%%%%%%%%%%%%%%%%%%%%%%%%%%%%%%%
13863E%%%%%%%%%%%%%%%%%%%%%%%%%%%%%%%%%%%%%%%%%%%%%%%%%%%%%%%%%%%%%%%%%%%%%%%%%%
13788E%%%%%%%%%%%%%%%%%%%%%%%%%%%%%%%%%%%%%%%%%%%%%%%%%%%%%%%%%%%%%%%%%%%%%%%%%%
13713E%%%%%%%%%%%%%%%%%%%%%%%%%%%%%%%%%%%%%%%%%%%%%%%%%%%%%%%%%%%%%%%%%j%%%%%%%%
13637D%%%%%%%%%%%%%%%%%%%%%%%%%%%%%%%%%%%%%%%%%%%%%%%%%%%%%%%%%%%%%%%%%%%%%%%%%%
13562D%%%%%%%%%%%%%%%%%%%%%%%%%%%%%%%%%%%%%%%%%%%%%%%%%%%%%%%%%%%%%%%%%%%%%%%%%%
13487D%%%%%%%%%%%%%%%%%%%%%%%%%%%%%%%%%%%%%%%%%%%%%%%%%%%%%%%%%%%%%%%%%%%%%%%%%%
13412D%%%%%%%%%%%%%%%%%%%%%%%%%%%%%%%%%%%%%%%%%%%%%%%%%%%%%%%%%%%%%%%%%%%%%%%%%%
13336D%%%%%%%%%%%%%%%%%%%%%%%%%%%%%%%%%%%%%%%%%%%%%%%%%%%%%%%%%%%%%%%%%%%%%%%%%%
13261D%%%%%%%%%%%%%%%%%%%%%%%%%%%%%%%%%%%%%%%%%%%%%%%%%%%%%%%%%%%%%%%%%%%%%%%%%%
13186D%%%%%%%%%%%%%%%%%%%%%%%%%%%%%%%%%%%%%%%%%%%%%%%%%%%%%%%%%%%%%%%%%%%%%%%%%%
13110D%%%%%%%%%%%%%%%%%%%%%%%%%%%%%%%%%%%%%%%%%%%%%%%j%%%%%%%%%%%%%%%%%%%%%%%%%%
13035C%%%%%%%%%%%%%%%%%%%%%%%%%%%%%%%%%%%%%%%%%%%%%%%%%%%%%%%%%%%%%%%%%%%%%%%%%%
12960C%%%%%%%%%%%%%%%%%%%%%%%%%%%%%%%%%%%%%%%%%%%%%%%%%%%%%%%%%%%%%%%%%%%%%%%%%%
12885C%%%%%%%%%%%%%%%%%%%%%%%%%%%%%%%%%%%%%%%%%%%%%%%%%%%%%%%%%%%%%%%%%%%%%%%%%%
12809C%%%%%%%%%%%%%%%%%%%%%%%%%%%%%%%%%%%%%%%%%%%%%%%%%%%%%%%%%%%%%%%%%%%%%%%%%%
12734C%%%%%%%%%%%%%%%%%%%%%%%%%%%%%%%%%%%%%%%%%%%%%%%%%%%%%%%%%%%%%%%%%%%%%%%%%%
12659C%%%%%%%%%%%%%%%%%%%%%%%%%%%%%%%%%%%%%%%%%%%%%%%%%%%%%%%%%%%%%%%%%%%%%%%%%%
12583C%%%%%%%%%%%%%%%%%%%%%%%%%%%%%%%%%%%%%%%%%%%%%%%%%%%%%%%%%%%%%%%%%%%%%%%%%%
12508C%%%%%%%%%%%%%%%%%%%%%%%%%%%%%%%%%%%%%%%%%%%%%%%%%%%%%%%%%%%%%%%%%%%%%%%%%%
12433C%%%%%%%%%%%%%%%%%%%%%%%%%%%%%%%%%%%%%%%%%%%%%%%%%%%%%%%%%%%%%%%%%%%%%%%%%%
12358C%%%%%%%%%%%%%%%%%%%%%%%%%%%%%%%%%%%%%%%%%%%%%%%%%%%%%%%%%%%%%%%%%%%%%%%%%%
12282C%%%%%%%%%%%%%%%%%%%%%%%%%%%%%%%%%%%%%%%%%%%%%%%%%%%%%%%%%%%%%%%%%%%%%%%%%%
12207C%%%%%%%%%%%%%%%%%%%%%%%%%%%%%%%%%%%%%%%%%%%%%%%%%%%%%%%%%%%%%%%%%%%%%%%%%%
12132C%%%%%%%%%%%%%j%%%%%%%%%%%%%%%%%%%%%%%%%%%%%%%%%%%%%%%%%%%%%%%%%%%%%%%%%%%%
12057B%%%%%%%%%%%%%%%%%%%%%%%%%%%%%%%%%%%%%%%%%%%%%%%%%%%%%%%%%%%%%%%%%%%%%%%%%%
11981B%%%%%%%%%%%%%%%%%%%%%%%%%%%%%%%%%%%%%%%%%%%%%%%%%%%%%%%%%%%%%%%%%%%%%%%%%%
11906B%%%%%%%%%%%%%%%%%%%%%%%%%%%%%%%%%%%%%%%%%%%%%%%%%%%%%%%%%%%%%%%%%%%%%%%%%%
11831B%%%%%%%%%%%%%%%%%%%%%%%%%%%%%%%%%%%%%%%%%%%%%%%%%%%%%%%%%%%%%%%%%%%%%%%%%%
11755B%%%%%%%%%%%%%%%%%%%%%%%%%%%%%%%%%%%%%%%%%%%%%%%%%%%%%%%%%%%%%%%%%%%%%%%%%%
11680B%%%%%%%%%%%%%%%%%%%%%%%%%%%%%%%%%%%%%%%%%%%%%%%%%%%%%%%%%%%%%%%%%%%%%%%%%%
11605B%%%%%%%%%%%%%%%%%%%%%%%%%%%%%%%%%%%%%%%%%%%%%%%%%%%%%%%%%%%%%%%%%%%%%%%%%%
11530B%%%%%%%%%%%%%%%%%%%%%%%%%%%%%%%%%%%%%%%%%%%%%%%%%%%%%%%%%%%%%%%%%%%%%%%%%%
11454B%%%%%%%%%%%%%%%%%%%%%%%%%%%%%%%%%%%%%%%%%%%%%%%%%%%%%%%%%%%%%%%%%%%%%%%%%%
11379B%%%%%%%%%%%%%%%%%%%%%%%%%%%%%%%%%%%%%%%%%%%%%%%%%%%%%%%%%%%%%%%%%%%%%%%%%%
11304B%%%%%%%%%%%%%%%%%%%%%%%%%%%%%%%%%%%%%%%%%%%%%%%%%%%%%%%%%%%%%%%%%%%%%%%%%%
11228B%%%%%%%%%%%%%%%%%%%%%%%%%%%%%%%%%%%%%%%%%%%%%%%%%%%%%%%%%%%%%%%%%%%%%%%%%%
11153B%%%%%%%%%%%%%%%%%%%%%%%%%%%%%%%%%%%%%%%%%%%%%%%%%%%%%%%%%%%%%%%%%%%%%%%%%%
11078B%%%%%%%%%%%%%%%%%%%%%%%%%%%%%%%%%%%%%%%%%%%%%%%%%%%%%%%%%%%%%%%%%%%%%%%%%%
11003B%%%%%%%%%%%%%%%%%%%%%%%%%%%%%%%%%%%%%%%%%%%%%%%%%%%%%%%%%%%%%%%%%%%%%%%%%%
10927B%%%%%%%%%%%%%%%%%%%%%%%%%%%%%%%%%%%%%%%%%%%%%%%%%%%%%%%%%%%%%%%%%%%%%%%%%%
10852B%%%%%%%%%%%%%%%%%%%%%%%%%%%%%%%%%%%%%%%%%%%%%%%%%%%%%%%%%%%%%%%%%%%%%%%%%%
10777B%%%%%%%%%%%%%%%%%%%%%%%%%%%%%%%%%%%%%%%%%%%%%%%%%%%%%%%%%%%%%%%%%%%%%%%%%%
10702B%%%%%%%%%%%%%%%%%%%%%%%%%%%%%%%%%%%%%%%%%%%%%%%%%%%%%%%%%%%%%%%%%%%%%%%%%%
10626B%%%%%%%%%%%%%%%%%%%%%%%%%%%%%%%%%%%%%%%%%%%%%%%%%%%%%%%%%%%%%%%%%%%%%%%%%%
10551B%%%%%%%%%%%%%%%%%%%%%%%%%%%%%%%%%%%%%%%%%%%%%%%%%%%%%%%%%%%%%%%%%%%%%%%%%%
10476B%%%%%%%%%%%%%%%%%%%%%%%%%%%%%%%%%%%%%%%%%%%%%%%%%%%%%%%%%%%%%%%%%%%%%%%%%%
10400B%%%%%%%%%%%%%%%%%%%%%%%%%%%%%%%%%%%%%%%%%%%%%%%%%%%%%%%%%%%%%%%%%%%%%%%%%%
10325B%%%%%%%%%%%%%%%%%%%%%%%%%%%%%%%%%%%%%%%%%%%%%%%%%%%%%%%%%%%%%%%%j%%%%%%%%%
10250A%%%%%%%%%%%%%%%%%%%%%%%%%%%%%%%%%%%%%%%%%%%%%%%%%%%%%%%%%%%%%%%%%%%%%%%%%%
10175A%%%%%%%%%%%%%%%%%%%%%%%%%%%%%%%%%%%%%%%%%%%%%%%%%%%%%%%%%%%%%%%%%%%%%%%%%%
10099A%%%%%%%%%%%%%%%%%%%%%%%%%%%%%%%%%%%%%%%%%%%%%%%%%%%%%%%%%%%%%%%%%%%%%%%%%%
10024A%%%%%%%%%%%%%%%%%%%%%%%%%%%%%%%%%%%%%%%%%%%%%%%%%%%%%%%%%%%%%%%%%%%%%%%%%%
9949A%%%%%%%%%%%%%%%%%%%%%%%%%%%%%%%%%%%%%%%%%%%%%%%%%%%%%%%%%%%%%%%%%%%%%%%%%%%
9872A%%%%%%%%%%%%%%%%%%%%%%%%%%%%%%%%%%%%%%%%%%%%%%%%%%%%%%%%%%%%%%%%%%%%%%%%%%%
9796A%%%%%%%%%%%%%%%%%%%%%%%%%%%%%%%%%%%%%%%%%%%%%%%%%%%%%%%%%%%%%%%%%%%%%%%%%%%
9720A%%%%%%%%%%%%%%%%%%%%%%%%%%%%%%%%%%%%%%%%%%%%%%%%%%%%%%%%%%%%%%%%%%%%%%%%%%%
9644A%%%%%%%%%%%%%%%%%%%%%%%%%%%%%%%%%%%%%%%%%%%%%%%%%%%%%%%%%%%%%%%%%%%%%%%%%%%
9567A%%%%%%%%%%%%%%%%%%%%%%%%%%%%%%%%%%%%%%%%%%%%%%%%%%%%%%%%%%%%%%%%%%%%%%%%%%%
9491A%%%%%%%%%%%%%%%%%%%%%%%%%%%%%%%%%%%%%%%%%%%%%%%%%%%%%%%%%%%%%%%%%%%%%%%%%%%
9415A%%%%%%%%%%%%%%%%%%%%%%%%%%%%%%%%%%%%%%%%%%%%%%%%%%%%%%%%%%%%%%%%%%%%%%%%%%%
9338A%%%%%%%%%%%%%%%%%%%%%%%%%%%%%%%%%%%%%%%%%%%%%%%%%%%%%%%%%%%%%%%%%%%%%%%%%%%
9262A%%%%%%%%%%%%%%%%%%%%%%%%%%%%%%%%%%%%%%%%%%%%%%%%%%%%%%%%%%%%%%%%%%%%%%%%%%%
9186A%%%%%%%%%%%%%%%%%%%%%%%%%%%%%%%%%%%%%%%%%%%%%%%%%%%%%%%%%%%%%%%%%%%%%%%%%%%
9109A%%%%%%%%%%%%%%%%%%%%%%%%%%%%%%%%%%%%%%%%%%%%%%%%%%%%%%%%%%%%%%%%%%%%%%%%%%%
9033A%%%%%%%%%%%%%%%%%%%%%%%%%%%%%%%%%%%%%%%%%%%%%%%%%%%%%%%%%%%%%%%%%%%%%%%%%%%
8957A%%%%%%%%%%%%%%%%%%%%%%%%%%%%%%%%%%%%%%%%%%%%%%%%%%%%%%%%%%%%%%%%%%%%%%%%%%%
8881A%%%%%%%%%%%%%%%%%%%%%%%%%%%%%%%%%%%%%%%%%%%%%%%%%%%%%%%%%%%%%%%%%%%%%%%%%%%
8804A%%%%%%%%%%%%%%%%%%%%%%%%%%%%%%%%%%%%%%%%%%%%%%%%%%%%%%%%%%%%%%%%%%%%%%%%%%%
8728A%%%%%%%%%%%%%%%%%%%%%%%%%%%%%%%%%%%%%%%%%%%%%%%%%%%%%%%%%%%%%%%%%%%%%%%%%%%
8652A%%%%%%%%%%%%%%%%%%%%%%%%%%%%%%%%%%%%%%%%%%%%%%%%%%%%%%%%%%%%%%%%%%%%%%%%%%%
8575A%%%%%%%%%%%%%%%%%%%%%%%%%%%%%%%%%%%%%%%%%%%%%%%%%%%%%%%%%%%%%%%%%%%%%%%%%%%
8499A%%%%%%%%%%%%%%%%%%%%%%%%%%%%%%%%%%%%%%%%%%%%%%%%%%%%%%%%%%%%%%%%%%%%%%%%%%%
8423A%%%%%%%%%%%%%%%%%%%%%%%%%%%%%%%%%%%%%%%%%%%%%%%%%%%%%%%%%%%%%%%%%%%%%%%%%%%
8347A%%%%%%%%%%%%%%%%%%%%%%%%%%%%%%%%%%%%%%%%%%%%%%%%%%%%%%%%%%%%%%%%%%%%%%%%%%%
8270A%%%%%%%%%%%%%%%%%%%%%%%%%%%%%%%%%%%%%%%%%%%%%%%%%%%%%%%%%%%%%%%%%%%%%%%%%%%
8194A%%%%%%%%%%%%%%%%%%%%%%%%%%%%%%%%%%%%%%%%%%%%%%%%%%%%%%%%%%%%%%%%%%%%%%%%%%%
8118A%%%%%%%%%%%%%%%%%%%%%%%%%%%%%%%%%%%%%%%%%%%%%%%%%%%%%%%%%%%%%%%%%%%%%%%%%%%
8041A%%%%%%%%%%%%%%%%%%%%%%%%%%%%%%%%%%%%%%%%%%%%%%%%%%%%%%%%%%%%%%%%%%%%%%%%%%%
7965A%%%%%%%%%%%%%%%%%%%%%%%%%%%%%%%%%%%%%%%%%%%%%%%%%%%%%%%%%%%%%%%%%%%%%%%%%%%
7889A%%%%%%%%%%%%%%%%%%%%%%%%%%%%%%%%%%%%%%%%%%%%%%%%%%%%%%%%%%%%%%%%%%%%%%%%%%%
7812A%%%%%%%%%%%%%%%%%%%%%%%%%%%%%%%%%%%%%%%%%%%%%%%%%%%%%%%%%%%%%%%%%%%%%%%%%%%
7736A%%%%%%%%%%%%%%%%%%%%%%%%%%%%%%%%%%%%%%%%%%%%%%%%%%%%%%%%%%%%%%%%%%%%%%%%%%%
7660A%%%%%%%%%%%%%%%%%%%%%%%%%%%%%%%%%%%%%%%%%%%%%%%%%%%%%%%%%%%%%%%%%%%%%%%%%%%
7584A%%%%%%%%%%%%%%%%%%%%%%%%%%%%%%%%%%%%%%%%%%%%%%%%%%%%%%%%%%%%%%%%%%%%%%%%%%%
7507A%%%%%%%%%%%%%%%%%%%%%%%%%%%%%%%%%%%%%%%%%%%%%%%%%%%%%%%%%%%%%%%%%%%%%%%%%%%
7431A%%%%%%%%%%%%%%%%%%%%%%%%%%%%%%%%%%%%%%%%%%%%%%%%%%%%%%%%%%%%%%%%%%%%%%%%%%%
7355A%%%%%%%%%%%%%%%%%%%%%%%%%%%%%%%%%%%%%%%%%%%%%%%%%%%%%%%%%%%%%%%%%%%%%%%%%%%
7278A%%%%%%%%%%%%%%%%%%%%%%%%%%%%%%%%%%%%%%%%%%%%%%%%%%%%%%%%%%%%%%%%%%%%%%%%%%%
7202A%%%%%%%%%%%%%%%%%%%%%%%%%%%%%%%%%%%%%%%%%%%%%%%%%%%%%%%%%%%%%%%%%%%%%%%%%%%
7126A%%%%%%%%%%%%%%%%%%%%%%%%%%%%%%%%%%%%%%%%%%%%%%%%%%%%%%%%%%%%%%%%%%%%%%%%%%%
7050A%%%%%%%%%%%%%%%%%%%%%%%%%%%%%%%%%%%%%%%%%%%%%%%%%%%%%%%%%%%%%%%%%%%%%%%%%%%
6973A%%%%%%%%%%%%%%%%%%%%%%%%%%%%%%%%%%%%%%%%%%%%%%%%%%%%%%%%%%%%%%%%%%%%%%%%%%%
6897A%%%%%%%%%%%%%%%%%%%%%%%%%%%%%%%%%%%%%%%%%%%%%%%%%%%%%%%%%%%%%%%%%%%%%%%%%%%
6821A%%%%%%%%%%%%%%%%%%%%%%%%%%%%%%%%%%%%%%%%%%%%%%%%%%%%%%%%%%%%%%%%%%%%%%%%%%%
6744A%%%%%%%%%%%%%%%%%%%%%%%%%%%%%%%%%%%%%%%%%%%%%%%%%%%%%%%%%%%%%%%%%%%%%%%%%%%
6668A%%%%%%%%%%%%%%%%%%%%%%%%%%%%%%%%%%%%%%%%%%%%%%%%%%%%%%%%%%%%%%%%%%%%%%%%%%%
6592A%%%%%%%%%%%%%%%%%%%%%%%%%%%%%%%%%%%%%%%%%%%%%%%%%%%%%%%%%%%%%%%%%%%%%%%%%%%
6515A%%%%%%%%%%%%%%%%%%%%%%%%%%%%%%%%%%%%%%%%%%%%%%%%%%%%%%%%%%%%%%%%%%%%%%%%%%%
6439A%%%%%%%%%%%%%%%%%%%%%%%%%%%%%%%%%%%%%%%%%%%%%%%%%%%%%%%%%%%%%%%%%%%%%%%%%%%
6363A%%%%%%%%%%%%%%%%%%%%%%%%%%%%%%%%%%%%%%%%%%%%%%%%%%%%%%%%%%%%%%%%%%%%%%%%%%%
6287A%%%%%%%%%%%%%%%%%%%%%%%%%%%%%%%%%%%%%%%%%%%%%%%%%%%%%%%%%%%%%%%%%%%%%%%%%%%
6210A%%%%%%%%%%%%%%%%%%%%%%%%%%%%%%%%%%%%%%%%%%%%%%%%%%%%%%%%%%%%%%%%%%%%%%%%%%%
6134A%%%%%%%%%%%%%%%%%%%%%%%%%%%%%%%%%%%%%%%%%%%%%%%%%%%%%%%%%%%%%%%%%%%%%%%%%%%
6058A%%%%%%%%%%%%%%%%%%%%%%%%%%%%%%%%%%%%%%%%%%%%%%%%%%%%%%%%%%%%%%%%%%%%%%%%%%%
5981A%%%%%%%%%%%%%%%%%%%%%%%%%%%%%%%%%%%%%%%%%%%%%%%%%%%%%%%%%%%%%%%%%%%%%%%%%%%
5905A%%%%%%%%%%%%%%%%%%%%%%%%%%%%%%%%%%%%%%%%%%%%%%%%%%%%%%%%%%%%%%%%%%%%%%%%%%%
5829A%%%%%%%%%%%%%%%%%%%%%%%%%%%%%%%%%%%%%%%%%%%%%%%%%%%%%%%%%%%%%%%%%%%%%%%%%%%
5753A%%%%%%%%%%%%%%%%%%%%%%%%%%%%%%%%%%%%%%%%%%%%%%%%%%%%%%%%%%%%%%%%%%%%%%%%%%%
5676A%%%%%%%%%%%%%%%%%%%%%%%%%%%%%%%%%%%%%%%%%%%%%%%%%%%%%%%%%%%%%%%%%%%%%%%%%%%
5600A%%%%%%%%%%%%%%%%%%%%%%%%%%%%%%%%%%%%%%%%%%%%%%%%%%%%%%%%%%%%%%%%%%%%%%%%%%%
5524A%%%%%%%%%%%%%%%%%%%%%%%%%%%%%%%%%%%%%%%%%%%%%%%%%%%%%%%%%%%%%%%%%%%%%%%%%%%
5447A%%%%%%%%%%%%%%%%%%%%%%%%%%%%%%%%%%%%%%%%%%%%%%%%%%%%%%%%%%%%%%%%%%%%%%%%%%%
5371A%%%%%%%%%%%%%%%%%%%%%%%%%%%%%%%%%%%%%%%%%%%%%%%%%%%%%%%%%%%%%%%%%%%%%%%%%%%
5295A%%%%%%%%%%%%%%%%%%%%%%%%%%%%%%%%%%%%%%%%%%%%%%%%%%%%%%%%%%%%%%%%%%%%%%%%%%%
5218A%%%%%%%%%%%%%%%%%%%%%%%%%%%%%%%%%%%%%%%%%%%%%%%%%%%%%%%%%%%%%%%%%%%%%%%%%%%
5142A%%%%%%%%%%%%%%%%%%%%%%%%%%%%%%%%%%%%%%%%%%%%%%%%%%%%%%%%%%%%%%%%%%%%%%%%%%%
5066A%%%%%%%%%%%%%%%%%%%%%%%%%%%%%%%%%%%%%%%%%%%%%%%%%%%%%%%%%%%%%%%%%%%%%%%%%%%
4990A%%%%%%%%%%%%%%%%%%%%%%%%%%%%%%%%%%%%%%%%%%%%%%%%%%%%%%%%%%%%%%%%%%%%%%%%%%%
4913A%%%%%%%%%%%%%%%%%%%%%%%%%%%%%%%%%%%%%%%%%%%%%%%%%%%%%%%%%%%%%%%%%%%%%%%%%%%
4837A%%%%%%%%%%%%%%%%%%%%%%%%%%%%%%%%%%%%%%%%%%%%%%%%%%%%%%%%%%%%%%%%%%%%%%%%%%%
4761A%%%%%%%%%%%%%%%%%%%%%%%%%%%%%%%%%%%%%%%%%%%%%%%%%%%%%%%%%%%%%%%%%%%%%%%%%%%
4684A%%%%%%%%%%%%%%%%%%%%%%%%%%%%%%%%%%%%%%%%%%%%%%%%%%%%%%%%%%%%%%%%%%%%%%%%%%%
4608A%%%%%%%%%%%%%%%%%%%%%%%%%%%%%%%%%%%%%%%%%%%%%%%%%%%%%%%%%%%%%%%%%%%%%%%%%%%
4532A%%%%%%%%%%%%%%%%%%%%%%%%%%%%%%%%%%%%%%%%%%%%%%%%%%%%%%%%%%%%%%%%%%%%%%%%%%%
4455A%%%%%%%%%%%%%%%%%%%%%%%%%%%%%%%%%%%%%%%%%%%%%%%%%%%%%%%%%%%%%%%%%%%%%%%%%%%
4379A%%%%%%%%%%%%%%%%%%%%%%%%%%%%%%%%%%%%%%%%%%%%%%%%%%%%%%%%%%%%%%%%%%%%%%%%%%%
4303A%%%%%%%%%%%%%%%%%%%%%%%%%%%%%%%%%%%%%%%%%%%%%%%%%%%%%%%%%%%%%%%%%%%%%%%%%%%
4227A%%%%%%%%%%%%%%%%%%%%%%%%%%%%%%%%%%%%%%%%%%%%%%%%%%%%%%%%%%%%%%%%%%%%%%%%%%%
4150A%%%%%%%%%%%%%%%%%%%%%%%%%%%%%%%%%%%%%%%%%%%%%%%%%%%%%%%%%%%%%%%%%%%%%%%%%%%
4074A%%%%%%%%%%%%%%%%%%%%%%%%%%%%%%%%%%%%%%%%%%%%%%%%%%%%%%%%%%%%%%%%%%%%%%%%%%%
3998A%%%%%%%%%%%%%%%%%%%%%%%%%%%%%%%%%%%%%%%%%%%%%%%%%%%%%%%%%%%%%%%%%%%%%%%%%%%
3921A%%%%%%%%%%%%%%%%%%%%%%%%%%%%%%%%%%%%%%%%%%%%%%%%%%%%%%%%%%%%%%%%%%%%%%%%%%%
3845A%%%%%%%%%%%%%%%%%%%%%%%%%%%%%%%%%%%%%%%%%%%%%%%%%%%%%%%%%%%%j%%%%%%%%%%%%%%
3769@%%%%%%%%%%%%%%%%%%%%%%%%%%%%%%%%%%%%%%%%%%%%%%%%%%%%%%%%%%%%%%%%%%%%%%%%%%%
3693@%%%%%%%%%%%%%%%%%%%%%%%%%%%%%%%%%%%%%%%%%%%%%%%%%%%%%%%%%%%%%%%%%%%%%%%%%%%
3616@%%%%%%%%%%%%%%%%%%%%%%%%%%%%%%%%%%%%%%%%%%%%%%%%%%%%%%%%%%%%%%%%%%%%%%%%%%%
3540@%%%%%%%%%%%%%%%%%%%%%%%%%%%%%%%%%%%%%%%%%%%%%%%%%%%%%%%%%%%%%%%%%%%%%%%%%%%
3464@%%%%%%%%%%%%%%%%%%%%%%%%%%%%%%%%%%%%%%%%%%%%%%%%%%%%%%%%%%%%%%%%%%%%%%%%%%%
3387@%%%%%%%%%%%%%%%%%%%%%%%%%%%%%%%%%%%%%%%%%%%%%%%%%%%%%%%%%%%%%%%%%%%%%%%%%%%
3311@%%%%%%%%%%%%%%%%%%%%%%%%%%%%%%%%%%%%%%%%%%%%%%%%%%%%%%%%%%%%%%%%%%%%%%%%%%%
3235@%%%%%%%%%%%%%%%%%%%%%%%%%%%%%%%%%%%%%%%%%%%%%%%%%%%%%%%%%%%%%%%%%%%%%%%%%%%
3158@%%%%%%%%%%%%%%%%%%%%%%%%%%%%%%%%%%%%%%%%%%%%%%%%%%%%%%%%%%%%%%%%%%%%%%%%%%%
3082@%%%%%%%%%%%%%%%%%%%%%%%%%%%%%%%%%%%%%%%%%%%%%%%%%%%%%%%%%%%%%%%%%%%%%%%%%%%
3006@%%%%%%%%%%%%%%%%%%%%%%%%%%%%%%%%%%%%%%%%%%%%%%%%%%%%%%%%%%%%%%%%%%%%%%%%%%%
2930@%%%%%%%%%%%%%%%%%%%%%%%%%%%%%%%%%%%%%%%%%%%%%%%%%%%%%%%%%%%%%%%%%%%%%%%%%%%
2853@%%%%%%%%%%%%%%%%%%%%%%%%%%%%%%%%%%%%%%%%%%%%%%%%%%%%%%%%%%%%%%%%%%%%%%%%%%%
2777@%%%%%%%%%%%%%%%%%%%%%%%%%%%%%%%%%%%%%%%%%%%%%%%%%%%%%%%%%%%%%%%%%%%%%%%%%%%
2701@%%%%%%%%%%%%%%%%%%%%%%%%%%%%%%%%%%%%%%%%%%%%%%%%%%%%%%%%%%%%%%%%%%%%%%%%%%%
2624@%%%%%%%%%%%%%%%%%%%%%%%%%%%%%%%%%%%%%%%%%%%%%%%%%%%%%%%%%%%%%%%%%%%%%%%%%%%
2548@%%%%%%%%%%%%%%%%%%%%%%%%%%%%%%%%%%%%%%%%%%%%%%%%%%%%%%%%%%%%%%%%%%%%%%%%%%%
2472@%%%%%%%%%%%%%%%%%%%%%%%%%%%%%%%%%%%%%%%%%%%%%%%%%%%%%%%%%%%%%%%%%%%%%%%%%%%
2396@%%%%%%%%%%%%%%%%%%%%%%%%%%%%%%%%%%%%%%%%%%%%%%%%%%%%%%%%%%%%%%%%%%%%%%%%%%%
2319@%%%%%%%%%%%%%%%%%%%%%%%%%%%%%%%%%%%%%%%%%%%%%%%%%%%%%%%%%%%%%%%%%%%%%%%%%%%
2243@%%%%%%%%%%%%%%%%%%%%%%%%%%%%%%%%%%%%%%%%%%%%%%%%%%%%%%%%%%%%%%%%%%%%%%%%%%%
2167@%%%%%%%%%%%%%%%%%%%%%%%%%%%%%%%%%%%%%%%%%%%%%%%%%%%%%%%%%%%%%%%%%%%%%%%%%%%
2090@%%%%%%%%%%%%%%%%%%%%%%%%%%%%%%%%%%%%%%%%%%%%%%%%%%%%%%%%%%%%%%%%%%%%%%%%%%%
2014@%%%%%%%%%%%%%%%%%%%%%%%%%%%%%%%%%%%%%%%%%%%%%%%%%%%%%%%%%%%%%%%%%%%%%%%%%%%
1938@%%%%%%%%%%%%%%%%%%%%%%%%%%%%%%%%%%%%%%%%%%%%%%%%%%%%%%%%%%%%%%%%%%%%%%%%%%%
1861@%%%%%%%%%%%%%%%%%%%%%%%%%%%%%%%%%%%%%%%%%%%%%%%%%%%%%%%%%%%%%%%%%%%%%%%%%%%
1785@%%%%%%%%%%%%%%%%%%%%%%%%%%%%%%%%%%%%%%%%%%%%%%%%%%%%%%%%%%%%%%%%%%%%%%%%%%%
1709@%%%%%%%%%%%%%%%%%%%%%%%%%%%%%%%%%%%%%%%%%%%%%%%%%%%%%%%%%%%%%%%%%%%%%%%%%%%
1633@%%%%%%%%%%%%%%%%%%%%%%%%%%%%%%%%%%%%%%%%%%%%%%%%%%%%%%%%%%%%%%%%%%%%%%%%%%%
1556@%%%%%%%%%%%%%%%%%%%%%%%%%%%%%%%%%%%%%%%%%%%%%%%%%%%%%%%%%%%%%%%%%%%%%%%%%%%
1480@%%%%%%%%%%%%%%%%%%%%%%%%%%%%%%%%%%%%%%%%%%%%%%%%%%%%%%%%%%%%%%%%%%%%%%%%%%%
1404@%%%%%%%%%%%%%%%%%%%%%%%%%%%%%%%%%%%%%%%%%%%%%%%%%%%%%%%%%%%%%%%%%%%%%%%%%%%
1327@%%%%%%%%%%%%%%%%%%%%%%%%%%%%%%%%%%%%%%%%%%%%%%%%%%%%%%%%%%%%%%%%%%%%%%%%%%%
1251@%%%%%%%%%%%%%%%%%%%%%%%%%%%%%%%%%%%%%%%%%%%%%%%%%%%%%%%%%%%%%%%%%%%%%%%%%%%
1175@%%%%%%%%%%%%%%%%%%%%%%%%%%%%%%%%%%%%%%%%%%%%%%%%%%%%%%%%%%%%%%%%%%%%%%%%%%%
1099@%%%%%%%%%%%%%%%%%%%%%%%%%%%%%%%%%%%%%%%%%%%%%%%%%%%%%%%%%%%%%%%%%%%%%%%%%%%
1022@%%%%%%%%%%%%%%%%%%%%%%%%%%%%%%%%%%%%%%%%%%%%%%%%%%%%%%%%%%%%%%%%%%%%%%%%%%%
946@%%%%%%%%%%%%%%%%%%%%%%%%%%%%%%%%%%%%%%%%%%%%%%%%%%%%%%%%%%%%%%%%%%%%%%%%%%%%
869@%%%%%%%%%%%%%%%%%%%%%%%%%%%%%%%%%%%%%%%%%%%%%%%%%%%%%%%%%%%%%%%%%%%%%%%%%%%%
791@%%%%%%%%%%%%%%%%%%%%%%%%%%%%%%%%%%%%%%%%%%%%%%%%%%%%%%%%%%%%%%%%%%%%%%%%%%%%
714@%%%%%%%%%%%%%%%%%%%%%%%%%%%%%%%%%%%%%%%%%%%%%%%%%%%%%%%%%%%%%%%%%%%%%%%%%%%%
637@%%%%%%%%%%%%%%%%%%%%%%%%%%%%%%%%%%%%%%%%%%%%%%%%%%%%%%%%%%%%%%%%%%%%%%%%%%%%
559@%%%%%%%%%%%%%%%%%%%%%%%%%%%%%%%%%%%%%%%%%%%%%%%%%%%%%%%%%%%%%%%%%%%%%%%%%%%%
482@%%%%%%%%%%%%%%%%%%%%%%%%%%%%%%%%%%%%%%%%%%%%%%%%%%%%%%%%%%%%%%%%%%%%%%%%%%%%
405@%%%%%%%%%%%%%%%%%%%%%%%%%%%%%%%%%%%%%%%%%%%%%%%%%%%%%%%%%%%%%%%%%%%%%%%%%%%%
327@%%%%%%%%%%%%%%%%%%%%%%%%%%%%%%%%%%%%%%%%%%%%%%%%%%%%%%%%%%%%%%%%%%%%%%%%%%%%
250@%%%%%%%%%%%%%%%%%%%%%%%%%%%%%%%%%%%%%%%%%%%%%%%%%%%%%%%%%%%%%%%%%%%%%%%%%%%%
173@%%%%%%%%%%%%%%%%%%%%%%%%%%%%%%%%%%%%%%%%%%%%%%%%%%%%%%%%%%%%%%%%%%%%%%%%%%%%
95@%%%%%%%%%%%%%%%%%%%%%%%%%%%%%%%%%%%%%%%%%%%%%%%%%%%%%%%%%%%%%%%%%%%%%%%%%%%%%
17@%%%%%%%%%%%%%%%%%%%%%%%%%%%%%%%%%%%%%%%%%%%%%%%%%%%%%%%%%%%%%%%%%%%%%%%%%%%%%
-61@%%%%%%%%%%%%%%%%%%%%%%%%%%%%%%%%%%%%%%%%%%%%%%%%%%%%%%%%%%%%%%%%%%%%%%%%%%%%
-138@%%%%%%%%%%%%%%%%%%%%%%%%%%%%%%%%%%%%%%%%%%%%%%%%%%%%%%%%%%%%%%%%%%%%%%%%%%%
-215@%%%%%%%%%%%%%%%%%%%%%%%%%%%%%%%%%%%%%%%%%%%%%%%%%%%%%%%%%%%%%%%%%%%%%%%%%%%
-291@%%%%%%%%%%%%%%%%%%%%%%%%%%%%%%%%%%%%%%%%%%%%%%%%%%%%%%%%%%%%%%%%%%%%%%%%%%%
-367@%%%%%%%%%%%%%%%%%%%%%%%%%%%%%%%%%%%%%%%%%%%%%%%%%%%%%%%%%%%%%%%%%%%%%%%%%%%
-444@%%%%%%%%%%%%%%%%%%%%%%%%%%%%%%%%%%%%%%%%%%%%%%%%%%%%%%%%%%%%%%%%%%%%%%%%%%%
-520@%%%%%%%%%%%%%%%%%%%%%%%%%%%%%%%%%%%%%%%%%%%%%%%%%%%%%%%%%%%%%%%%%%%%%%%%%%%
-596@%%%%%%%%%%%%%%%%%%%%%%%%%%%%%%%%%%%%%%%%%%%%%%%%%%%%%%%%%%%%%%%%%%%%%%%%%%%
-673@%%%%%%%%%%%%%%%%%%%%%%%%%%%%%%%%%%%%%%%%%%%%%%%%%%%%%%%%%%%%%%%%%%%%%%%%%%%
-749@%%%%%%%%%%%%%%%%%%%%%%%%%%%%%%%%%%%%%%%%%%%%%%%%%%%%%%%%%%%%%%%%%%%%%%%%%%%
-825@%%%%%%%%%%%%%%%%%%%%%%%%%%%%%%%%%%%%%%%%%%%%%%%%%%%%%%%%%%%%%%%%%%%%%%%%%%%
-901@%%%%%%%%%%%%%%%%%%%%%%%%%%%%%%%%%%%%%%%%%%%%%%%%%%%%%%%%%%%%%%%%%%%%%%%%%%%
-978@%%%%%%%%%%%%%%%%%%%%%%%%%%%%%%%%%%%%%%%%%%%%%%%%%%%%%%%%%%%%%%%%%%%%%%%%%%%
-1054@%%%%%%%%%%%%%%%%%%%%%%%%%%%%%%%%%%%%%%%%%%%%%%%%%%%%%%%%%%%%%%%%%%%%%%%%%%
-1129@%%%%%%%%%%%%%%%%%%%%%%%%%%%%%%%%%%%%%%%%%%%%%%%%%%%%%%%%%%%%%%%%%%%%%%%%%%
-1205@%%%%%%%%%%%%%%%%%%%%%%%%%%%%%%%%%%%%%%%%%%%%%%%%%%%%%%%%%%%%%%%%%%%%%%%%%%
-1280@%%%%%%%%%%%%%%%%%%%%%%%%%%%%%%%%%%%%%%%%%%%%%%%%%%%%%%%%%%%%%%%%%%%%%%%%%%
-1355@%%%%%%%%%%%%%%%%%%%%%%%%%%%%%%%%%%%%%%%%%%%%%%%%%%%%%%%%%%%%%%%%%%%%%%%%%%
-1430@%%%%%%%%%%%%%%%%%%%%%%%%%%%%%%%%%%%%%%%%%%%%%%%%%%%%%%%%%%%%%%%%%%%%%%%%%%
-1506@%%%%%%%%%%%%%%%%%%%%%%%%%%%%%%%%%%%%%%%%%%%%%%%%%%%%%%%%%%%%%%%%%%%%%%%%%%
-1581@%%%%%%%%%%%%%%%%%%%%%%%%%%%%%%%%%%%%%%%%%%%%%%%%%%%%%%%%%%%%%%%%%%%%%%%%%%
-1656@%%%%%%%%%%%%%%%%%%%%%%%%%%%%%%%%%%%%%%%%%%%%%%%%%%%%%%%%%%%%%%%%%%%%%%%%%%
-1732@%%%%%%%%%%%%%%%%%%%%%%%%%%%%%%%%%%%%%%%%%%%%%%%%%%%%%%%%%%%%%%%%%%%%%%%%%%
-1807@%%%%%%%%%%%%%%%%%%%%%%%%%%%%%%%%%%%%%%%%%%%%%%%%%%%%%%%%%%%%%%%%%%%%%%%%%%
-1882@%%%%%%%%%%%%%%%%%%%%%%%%%%%%%%%%%%%%%%%%%%%%%%%%%%%%%%%%%%%%%%%%%%%%%%%%%%
-1957@%%%%%%%%%%%%%%%%%%%%%%%%%%%%%%%%%%%%%%%%%%%%%%%%%%%%%%%%%%%%%%%%%%%%%%%%%%
-2033@%%%%%%%%%%%%%%%%%%%%%%%%%%%%%%%%%%%%%%%%%%%%%%%%%%%%%%%%%%%%%%%%%%%%%%%%%%
-2108@%%%%%%%%%%%%%%%%%%%%%%%%%%%%%%%%%%%%%%%%%%%%%%%%%%%%%%%%%%%%%%%%%%%%%%%%%%
-2183@%%%%%%%%%%%%%%%%%%%%%%%%%%%%%%%%%%%%%%%%%%%%%%%%%%%%%%%%%%%%%%%%%%%%%%%%%%
-2258@%%%%%%%%%%%%%%%%%%%%%%%%%%%%%%%%%%%%%%%%%%%%%%%%%%%%%%%%%%%%%%%%%%%%%%%%%%
-2334@%%%%%%%%%%%%%%%%%%%%%%%%%%%%%%%%%%%%%%%%%%%%%%%%%%%%%%%%%%%%%%%%%%%%%%%%%%
-2409@%%%%%%%%%%%%%%%%%%%%%%%%%%%%%%%%%%%%%%%%%%%%%%%%%%%%%%%%%%%%%%%%%%%%%%%%%%
-2484@%%%%%%%%%%%%%%%%%%%%%%%%%%%%%%%%%%%%%%%%%%%%%%%%%%%%%%%%%%%%%%%%%%%%%%%%%%
-2560@%%%%%%%%%%%%%%%%%%%%%%%%%%%%%%%%%%%%%%%%%%%%%%%%%%%%%%%%%%%%%%%%%%%%%%%%%%
-2635@%%%%%%%%%%%%%%%%%%%%%%%%%%%%%%%%%%%%%%%%%%%%%%%%%%%%%%%%%%%%%%%%%%%%%%%%%%
-2710@%%%%%%%%%%%%%%%%%%%%%%%%%%%%%%%%%%%%%%%%%%%%%%%%%%%%%%%%%%%%%%%%%%%%%%%%%%
-2785@%%%%%%%%%%%%%%%%%%%%%%%%%%%%%%%%%%%%%%%%%%%%%%%%%%%%%%%%%%%%%%%%%%%%%%%%%%
-2861@%%%%%%%%%%%%%%%%%%%%%%%%%%%%%%%%%%%%%%%%%%%%%%%%%%%%%%%%%%%%%%%%%%%%%%%%%%
-2936@%%%%%%%%%%%%%%%%%%%%%%%%%%%%%%%%%%%%%%%%%%%%%%%%%%%%%%%%%%%%%%%%%%%%%%%%%%
-3011@%%%%%%%%%%%%%%%%%%%%%%%%%%%%%%%%%%%%%%%%%%%%%%%%%%%%%%%%%%%%%%%%%%%%%%%%%%
-3087@%%%%%%%%%%%%%%%%%%%%%%%%%%%%%%%%%%%%%%%%%%%%%%%%%%%%%%%%%%%%%%%%%%%%%%%%%%
-3162@%%%%%%%%%%%%%%%%%%%%%%%%%%%%%%%%%%%%%%%%%%%%%%%%%%%%%%%%%%%%%%%%%%%%%%%%%%
-3237@%%%%%%%%%%%%%%%%%%%%%%%%%%%%%%%%%%%%%%%%%%%%%%%%%%%%%%%%%%%%%%%%%%%%%%%%%%
-3312@%%%%%%%%%%%%%%%%%%%%%%%%%%%%%%%%%%%%%%%%%%%%%%%%%%%%%%%%%%%%%%%%%%%%%%%%%%
-3388@%%%%%%%%%%%%%%%%%%%%%%%%%%%%%%%%%%%%%%%%%%%%%%%%%%%%%%%%%%%%%%%%%%%%%%%%%%
-3463@%%%%%%%%%%%%%%%%%%%%%%%%%%%%%%%%%%%%%%%%%%%%%%%%%%%%%%%%%%%%%%%%%%%%%%%%%%
-3538@%%%%%%%%%%%%%%%%%%%%%%%%%%%%%%%%%%%%%%%%%%%%%%%%%%%%%%%%%%%%%%%%%%%%%%%%%%
-3613@%%%%%%%%%%%%%%%%%%%%%%%%%%%%%%%%%%%%%%%%%%%%%%%%%%%%%%%%%%%%%%%%%%%%%%%%%%
-3689@%%%%%%%%%%%%%%%%%%%%%%%%%%%%%%%%%%%%%%%%%%%%%%%%%%%%%%%%%%%%%%%%%%%%%%%%%%
-3764@%%%%%%%%%%%%%%%%%%%%%%%%%%%%%%%%%%%%%%%%%%%%%%%%%%%%%%%%%%%%%%%%%%%%%%%%%%
-3839@%%%%%%%%%%%%%%%%%%%%%%%%%%%%%%%%%%%%%%%%%%%%%%%%%%%%%%%%%%%%%%%%%%%%%%%%%%
-3915@%%%%%%%%%%%%%%%%%%%%%%%%%%%%%%%%%%%%%%%%%%%%%%%%%%%%%%%%%%%%%%%%%%%%%%%%%%
-3990@%%%%%%%%%%%%%%%%%%%%%%%%%%%%%%%%%%%%%%%%%%%%%%%%%%%%%%%%%%%%%%%%%%%%%%%%%%
-4065@%%%%%%%%%%%%%%%%%%%%%%%%%%%%%%%%%%%%%%%%%%%%%%%%%%%%%%%%%%%%%%%%%%%%%%%%%%
-4140@%%%%%%%%%%%%%%%%%%%%%%%%%%%%%%%%%%%%%%%%%%%%%%%%%%%%%%%%%%%%%%%%%%%%%%%%%%
-4216@%%%%%%%%%%%%%%%%%%%%%%%%%%%%%%%%%%%%%%%%%%%%%%%%%%%%%%%%%%%%%%%%%%%%%%%%%%
-4291@%%%%%%%%%%%%%%%%%%%%%%%%%%%%%%%%%%%%%%%%%%%%%%%%%%%%%%%%%%%%%%%%%%%%%%%%%%
-4366@%%%%%%%%%%%%%%%%%%%%%%%%%%%%%%%%%%%%%%%%%%%%%%%%%%%%%%%%%%%%%%%%%%%%%%%%%%
-4442@%%%%%%%%%%%%%%%%%%%%%%%%%%%%%%%%%%%%%%%%%%%%%%%%%%%%%%%%%%%%%%%%%%%%%%%%%%
-4517@%%%%%%%%%%%%%%%%%%%%%%%%%%%%%%%%%%%%%%%%%%%%%%%%%%%%%%%%%%%%%%%%%%%%%%%%%%
-4592@%%%%%%%%%%%%%%%%%%%%%%%%%%%%%%%%%%%%%%%%%%%%%%%%%%%%%%%%%%%%%%%%%%%%%%%%%%
-4667@%%%%%%%%%%%%%%%%%%%%%%%%%%%%%%%%%%%%%%%%%%%%%%%%%%%%%%%%%%%%%%%%%%%%%%%%%%
-4743@%%%%%%%%%%%%%%%%%%%%%%%%%%%%%%%%%%%%%%%%%%%%%%%%%%%%%%%%%%%%%%%%%%%%%%%%%%
-4818@%%%%%%%%%%%%%%%%%%%%%%%%%%%%%%%%%%%%%%%%%%%%%%%%%%%%%%%%%%%%%%%%%%%%%%%%%%
-4893@%%%%%%%%%%%%%%%%%%%%%%%%%%%%%%%%%%%%%%%%%%%%%%%%%%%%%%%%%%%%%%%%%%%%%%%%%%
-4968@%%%%%%%%%%%%%%%%%%%%%%%%%%%%%%%%%%%%%%%%%%%%%%%%%%%%%%%%%%%%%%%%%%%%%%%%%%
-5044@%%%%%%%%%%%%%%%%%%%%%%%%%%%%%%%%%%%%%%%%%%%%%%%%%%%%%%%%%%%%%%%%%%%%%%%%%%
-5119@%%%%%%%%%%%%%%%%%%%%%%%%%%%%%%%%%%%%%%%%%%%%%%%%%%%%%%%%%%%%%%%%%%%%%%%%%%
-5194@%%%%%%%%%%%%%%%%%%%%%%%%%%%%%%%%%%%%%%%%%%%%%%%%%%%%%%%%%%%%%%%%%%%%%%%%%%
-5270@%%%%%%%%%%%%%%%%%%%%%%%%%%%%%%%%%%%%%%%%%%%%%%%%%%%%%%%%%%%%%%%%%%%%%%%%%%
-5345@%%%%%%%%%%%%%%%%%%%%%%%%%%%%%%%%%%%%%%%%%%%%%%%%%%%%%%%%%%%%%%%%%%%%%%%%%%
-5420@%%%%%%%%%%%%%%%%%%%%%%%%%%%%%%%%%%%%%%%%%%%%%%%%%%%%%%%%%%%%%%%%%%%%%%%%%%
-5495@%%%%%%%%%%%%%%%%%%%%%%%%%%%%%%%%%%%%%%%%%%%%%%%%%%%%%%%%%%%%%%%%%%%%%%%%%%
-5571@%%%%%%%%%%%%%%%%%%%%%%%%%%%%%%%%%%%%%%%%%%%%%%%%%%%%%%%%%%%%%%%%%%%%%%%%%%
-5646@%%%%%%%%%%%%%%%%%%%%%%%%%%%%%%%%%%%%%%%%%%%%%%%%%%%%%%%%%%%%%%%%%%%%%%%%%%
-5721@%%%%%%%%%%%%%%%%%%%%%%%%%%%%%%%%%%%%%%%%%%%%%%%%%%%%%%%%%%%%%%%%%%%%%%%%%%
-5797@%%%%%%%%%%%%%%%%%%%%%%%%%%%%%%%%%%%%%%%%%%%%%%%%%%%%%%%%%%%%%%%%%%%%%%%%%%
-5872@%%%%%%%%%%%%%%%%%%%%%%%%%%%%%%%%%%%%%%%%%%%%%%%%%%%%%%%%%%%%%%%%%%%%%%%%%%
-5947@%%%%%%%%%%%%%%%%%%%%%%%%%%%%%%%%%%%%%%%%%%%%%%%%%%%%%%%%%%%%%%%%%%%%%%%%%%
-6022@%%%%%%%%%%%%%%%%%%%%%%%%%%%%%%%%%%%%%%%%%%%%%%%%%%%%%%%%%%%%%%%%%%%%%%%%%%
-6098@%%%%%%%%%%%%%%%%%%%%%%%%%%%%%%%%%%%%%%%%%%%%%%%%%%%%%%%%%%%%%%%%%%%%%%%%%%
-6173@%%%%%%%%%%%%%%%%%%%%%%%%%%%%%%%%%%%%%%%%%%%%%%%%%%%%%%%%%%%%%%%%%%%%%%%%%%
-6248@%%%%%%%%%%%%%%%%%%%%%%%%%%%%%%%%%%%%%%%%%%%%%%%%%%%%%%%%%%%%%%%%%%%%%%%%%%
-6323@%%%%%%%%%%%%%%%%%%%%%%%%%%%%%%%%%%%%%%%%%%%%%%%%%%%%%%%%%%%%%%%%%%%%%%%%%%
-6399@%%%%%%%%%%%%%%%%%%%%%%%%%%%%%%%%%%%%%%%%%%%%%%%%%%%%%%%%%%%%%%%%%%%%%%%%%%
-6474@%%%%%%%%%%%%%%%%%%%%%%%%%%%%%%%%%%%%%%%%%%%%%%%%%%%%%%%%%%%%%%%%%%%%%%%%%%
-6549@%%%%%%%%%%%%%%%%%%%%%%%%%%%%%%%%%%%%%%%%%%%%%%%%%%%%%%%%%%%%%%%%%%%%%%%%%%
-6625@%%%%%%%%%%%%%%%%%%%%%%%%%%%%%%%%%%%%%%%%%%%%%%%%%%%%%%%%%%%%%%%%%%%%%%%%%%
-6700@%%%%%%%%%%%%%%%%%%%%%%%%%%%%%%%%%%%%%%%%%%%%%%%%%%%%%%%%%%%%%%%%%%%%%%%%%%
-6775@%%%%%%%%%%%%%%%%%%%%%%%%%%%%%%%%%%%%%%%%%%%%%%%%%%%%%%%%%%%%%%%%%%%%%%%%%%
-6850@%%%%%%%%%%%%%%%%%%%%%%%%%%%%%%%%%%%%%%%%%%%%%%%%%%%%%%%%%%%%%%%%%%%%%%%%%%
-6926@%%%%%%%%%%%%%%%%%%%%%%%%%%%%%%%%%%%%%%%%%%%%%%%%%%%%%%%%%%%%%%%%%%%%%%%%%%
-7001@%%%%%%%%%%%%%%%%%%%%%%%%%%%%%%%%%%%%%%%%%%%%%%%%%%%%%%%%%%%%%%%%%%%%%%%%%%
-7076@%%%%%%%%%%%%%%%%%%%%%%%%%%%%%%%%%%%%%%%%%%%%%%%%%%%%%%%%%%%%%%%%%%%%%%%%%%
-7152@%%%%%%%%%%%%%%%%%%%%%%%%%%%%%%%%%%%%%%%%%%%%%%%%%%%%%%%%%%%%%%%%%%%%%%%%%%
-7227@%%%%%%%%%%%%%%%%%%%%%%%%%%%%%%%%%%%%%%%%%%%%%%%%%%%%%%%%%%%%%%%%%%%%%%%%%%
-7302@%%%%%%%%%%%%%%%%%%%%%%%%%%%%%%%%%%%%%%%%%%%%%%%%%%%%%%%%%%%%%%%%%%%%%%%%%%
-7377@%%%%%%%%%%%%%%%%%%%%%%%%%%%%%%%%%%%%%%%%%%%%%%%%%%%%%%%%%%%%%%%%%%%%%%%%%%
-7453@%%%%%%%%%%%%%%%%%%%%%%%%%%%%%%%%%%%%%%%%%%%%%%%%%%%%%%%%%%%%%%%%%%%%%%%%%%
-7528@%%%%%%%%%%%%%%%%%%%%%%%%%%%%%%%%%%%%%%%%%%%%%%%%%%%%%%%%%%%%%%%%%%%%%%%%%%
-7603@%%%%%%%%%%%%%%%%%%%%%%%%%%%%%%%%%%%%%%%%%%%%%%%%%%%%%%%%%%%%%%%%%%%%%%%%%%
-7678@%%%%%%%%%%%%%%%%%%%%%%%%%%%%%%%%%%%%%%%%%%%%%%%%%%%%%%%%%%%%%%%%%%%%%%%%%%
-7754@%%%%%%%%%%%%%%%%%%%%%%%%%%%%%%%%%%%%%%%%%%%%%%%%%%%%%%%%%%%%%%%%%%%%%%%%%%
-7829@%%%%%%%%%%%%%%%%%%%%%%%%%%%%%%%%%%%%%%%%%%%%%%%%%%%%%%%%%%%%%%%%%%%%%%%%%%
-7904@%%%%%%%%%%%%%%%%%%%%%%%%%%%%%%%%%%%%%%%%%%%%%%%%%%%%%%%%%%%%%%%%%%%%%%%%%%
-7980@%%%%%%%%%%%%%%%%%%%%%%%%%%%%%%%%%%%%%%%%%%%%%%%%%%%%%%%%%%%%%%%%%%%%%%%%%%
-8055@%%%%%%%%%%%%%%%%%%%%%%%%%%%%%%%%%%%%%%%%%%%%%%%%%%%%%%%%%%%%%%%%%%%%%%%%%%
-8130@%%%%%%%%%%%%%%%%%%%%%%%%%%%%%%%%%%%%%%%%%%%%%%%%%%%%%%%%%%%%%%%%%%%%%%%%%%
-8205@%%%%%%%%%%%%%%%%%%%%%%%%%%%%%%%%%%%%%%%%%%%%%%%%%%%%%%%%%%%%%%%%%%%%%%%%%%
-8281@%%%%%%%%%%%%%%%%%%%%%%%%%%%%%%%%%%%%%%%%%%%%%%%%%%%%%%%%%%%%%%%%%%%%%%%%%%
-8356@%%%%%%%%%%%%%%%%%%%%%%%%%%%%%%%%%%%%%%%%%%%%%%%%%%%%%%%%%%%%%%%%%%%%%%%%%%
-8431@%%%%%%%%%%%%%%%%%%%%%%%%%%%%%%%%%%%%%%%%%%%%%%%%%%%%%%%%%%%%%%%%%%%%%%%%%%
-8507@%%%%%%%%%%%%%%%%%%%%%%%%%%%%%%%%%%%%%%%%%%%%%%%%%%%%%%%%%%%%%%%%%%%%%%%%%%
-8582@%%%%%%%%%%%%%%%%%%%%%%%%%%%%%%%%%%%%%%%%%%%%%%%%%%%%%%%%%%%%%%%%%%%%%%%%%%
-8657@%%%%%%%%%%%%%%%%%%%%%%%%%%%%%%%%%%%%%%%%%%%%%%%%%%%%%%%%%%%%%%%%%%%%%%%%%%
-8732@%%%%%%%%%%%%%%%%%%%%%%%%%%%%%%%%%%%%%%%%%%%%%%%%%%%%%%%%%%%%%%%%%%%%%%%%%%
-8808@%%%%%%%%%%%%%%%%%%%%%%%%%%%%%%%%%%%%%%%%%%%%%%%%%%%%%%%%%%%%%%%%%%%%%%%%%%
-8883@%%%%%%%%%%%%%%%%%%%%%%%%%%%%%%%%%%%%%%%%%%%%%%%%%%%%%%%%%%%%%%%%%%%%%%%%%%
-8958@%%%%%%%%%%%%%%%%%%%%%%%%%%%%%%%%%%%%%%%%%%%%%%%%%%%%%%%%%%%%%%%%%%%%%%%%%%
-9033@%%%%%%%%%%%%%%%%%%%%%%%%%%%%%%%%%%%%%%%%%%%%%%%%%%%%%%%%%%%%%%%%%%%%%%%%%%
-9109@%%%%%%%%%%%%%%%%%%%%%%%%%%%%%%%%%%%%%%%%%%%%%%%%%%%%%%%%%%%%%%%%%%%%%%%%%%
-9184@%%%%%%%%%%%%%%%%%%%%%%%%%%%%%%%%%%%%%%%%%%%%%%%%%%%%%%%%%%%%%%%%%%%%%%%%%%
-9259@%%%%%%%%%%%%%%%%%%%%%%%%%%%%%%%%%%%%%%%%%%%%%%%%%%%%%%%%%%%%%%%%%%%%%%%%%%
-9335@%%%%%%%%%%%%%%%%%%%%%%%%%%%%%%%%%%%%%%%%%%%%%%%%%%%%%%%%%%%%%%%%%%%%%%%%%%
-9410@%%%%%%%%%%%%%%%%%%%%%%%%%%%%%%%%%%%%%%%%%%%%%%%%%%%%%%%%%%%%%%%%%%%%%%%%%%
-9485@%%%%%%%%%%%%%%%%%%%%%%%%%%%%%%%%%%%%%%
-9524@ $$ checkpoint
##END=
##TITLE=Predicted peak list
##JCAMP-DX=5.01
##ORIGIN=UNKNOWN
##OWNER=UNKNOWN
##DATA TYPE=NMR PEAK TABLE
##DATA CLASS=PEAK TABLE
##BLOCK_ID=3
##CROSS REFERENCE=NMR SPECTRUM:BLOCK_ID=2
##DATE=22/02/07
##TIME=20:02:33
##LONG DATE=2022/02/07 20:02:33 
##.OBSERVE FREQUENCY=100
##.OBSERVE NUCLEUS=1H
##NPOINTS=94
##XUNITS=PPM
##YUNITS=ARBITRARY UNITS
##PEAK TABLE=(XY..XY)
(7.753000, 0.125023625)
(7.767000, 0.125023625)
(7.772000, 0.125023625)
(7.786000, 0.125023625)
(7.834000, 0.125023625)
(7.848000, 0.125023625)
(7.853000, 0.125023625)
(7.867000, 0.125023625)
(8.243500, 0.125023625)
(8.248500, 0.125023625)
(8.290500, 0.125023625)
(8.295500, 0.125023625)
(8.324500, 0.125023625)
(8.329500, 0.125023625)
(8.371500, 0.125023625)
(8.376500, 0.125023625)
(9.549500, 0.25004725)
(9.563500, 0.25004725)
(9.596500, 0.25004725)
(9.610500, 0.25004725)
(3.685500, 0.5000945)
(3.794500, 0.5000945)
(3.642500, 0.125023625)
(3.695500, 0.25004725)
(3.748500, 0.125023625)
(3.731500, 0.125023625)
(3.784500, 0.25004725)
(3.837500, 0.125023625)
(4.081500, 0.125023625)
(4.134500, 0.125023625)
(4.151500, 0.125023625)
(4.204500, 0.125023625)
(4.195500, 0.125023625)
(4.248500, 0.125023625)
(4.265500, 0.125023625)
(4.318500, 0.125023625)
(4.131500, 0.125023625)
(4.184500, 0.125023625)
(4.201500, 0.125023625)
(4.254500, 0.125023625)
(4.245500, 0.125023625)
(4.298500, 0.125023625)
(4.315500, 0.125023625)
(4.368500, 0.125023625)
(4.131500, 0.125023625)
(4.184500, 0.125023625)
(4.201500, 0.125023625)
(4.254500, 0.125023625)
(4.245500, 0.125023625)
(4.298500, 0.125023625)
(4.315500, 0.125023625)
(4.368500, 0.125023625)
(4.081500, 0.125023625)
(4.134500, 0.125023625)
(4.151500, 0.125023625)
(4.204500, 0.125023625)
(4.195500, 0.125023625)
(4.248500, 0.125023625)
(4.265500, 0.125023625)
(4.318500, 0.125023625)
(3.749500, 0.125023625)
(3.802500, 0.25004725)
(3.855500, 0.125023625)
(3.844500, 0.125023625)
(3.897500, 0.25004725)
(3.950500, 0.125023625)
(6.121000, 0.5000945)
(6.139000, 0.5000945)
(8.490000, 1.000189)
(8.490000, 1.000189)
(4.309000, 0.125023625)
(4.327000, 0.125023625)
(4.343000, 0.125023625)
(4.361000, 0.125023625)
(4.379000, 0.125023625)
(4.397000, 0.125023625)
(4.413000, 0.125023625)
(4.431000, 0.125023625)
(3.425500, 0.25004725)
(3.459500, 0.25004725)
(3.520500, 0.25004725)
(3.554500, 0.25004725)
(4.287500, 0.25004725)
(4.363500, 0.25004725)
(4.376500, 0.25004725)
(4.452500, 0.25004725)
(3.647500, 0.25004725)
(3.723500, 0.25004725)
(3.756500, 0.25004725)
(3.832500, 0.25004725)
(9.568000, 0.25004725)
(9.573000, 0.25004725)
(9.587000, 0.25004725)
(9.592000, 0.25004725)
##END=
##TITLE=Predicted assignments
##JCAMP-DX=5.01
##ORIGIN=UNKNOWN
##OWNER=UNKNOWN
##DATA TYPE=NMR PEAK ASSIGNMENTS
##DATA CLASS=PEAK ASSIGNMENTS
##BLOCK_ID=4
##CROSS REFERENCE=STRUCTURE:BLOCK_ID=1
##DATE=22/02/07
##TIME=20:02:33
##LONG DATE=2022/02/07 20:02:33 
##.OBSERVE FREQUENCY=100
##.OBSERVE NUCLEUS=1H
##NPOINTS=94
##XUNITS=PPM
##PEAK ASSIGNMENTS=(XMA)
(7.810000, <ddd>, <51>)
(7.810000, <ddd>, <51>)
(7.810000, <ddd>, <51>)
(7.810000, <ddd>, <51>)
(7.810000, <ddd>, <51>)
(7.810000, <ddd>, <51>)
(7.810000, <ddd>, <51>)
(7.810000, <ddd>, <51>)
(8.310000, <ddd>, <52>)
(8.310000, <ddd>, <52>)
(8.310000, <ddd>, <52>)
(8.310000, <ddd>, <52>)
(8.310000, <ddd>, <52>)
(8.310000, <ddd>, <52>)
(8.310000, <ddd>, <52>)
(8.310000, <ddd>, <52>)
(9.580000, <dd>, <53>)
(9.580000, <dd>, <53>)
(9.580000, <dd>, <53>)
(9.580000, <dd>, <53>)
(3.740000, <d>, <54>)
(3.740000, <d>, <54>)
(3.740000, <dt>, <55>)
(3.740000, <dt>, <55>)
(3.740000, <dt>, <55>)
(3.740000, <dt>, <55>)
(3.740000, <dt>, <55>)
(3.740000, <dt>, <55>)
(4.200000, <ddd>, <56>)
(4.200000, <ddd>, <56>)
(4.200000, <ddd>, <56>)
(4.200000, <ddd>, <56>)
(4.200000, <ddd>, <56>)
(4.200000, <ddd>, <56>)
(4.200000, <ddd>, <56>)
(4.200000, <ddd>, <56>)
(4.250000, <ddd>, <57>)
(4.250000, <ddd>, <57>)
(4.250000, <ddd>, <57>)
(4.250000, <ddd>, <57>)
(4.250000, <ddd>, <57>)
(4.250000, <ddd>, <57>)
(4.250000, <ddd>, <57>)
(4.250000, <ddd>, <57>)
(4.250000, <ddd>, <59>)
(4.250000, <ddd>, <59>)
(4.250000, <ddd>, <59>)
(4.250000, <ddd>, <59>)
(4.250000, <ddd>, <59>)
(4.250000, <ddd>, <59>)
(4.250000, <ddd>, <59>)
(4.250000, <ddd>, <59>)
(4.200000, <ddd>, <60>)
(4.200000, <ddd>, <60>)
(4.200000, <ddd>, <60>)
(4.200000, <ddd>, <60>)
(4.200000, <ddd>, <60>)
(4.200000, <ddd>, <60>)
(4.200000, <ddd>, <60>)
(4.200000, <ddd>, <60>)
(3.850000, <dt>, <61>)
(3.850000, <dt>, <61>)
(3.850000, <dt>, <61>)
(3.850000, <dt>, <61>)
(3.850000, <dt>, <61>)
(3.850000, <dt>, <61>)
(6.130000, <d>, <62>)
(6.130000, <d>, <62>)
(8.490000, <s>, <63>)
(8.490000, <s>, <66>)
(4.370000, <ddd>, <67>)
(4.370000, <ddd>, <67>)
(4.370000, <ddd>, <67>)
(4.370000, <ddd>, <67>)
(4.370000, <ddd>, <67>)
(4.370000, <ddd>, <67>)
(4.370000, <ddd>, <67>)
(4.370000, <ddd>, <67>)
(3.490000, <dd>, <70>)
(3.490000, <dd>, <70>)
(3.490000, <dd>, <70>)
(3.490000, <dd>, <70>)
(4.370000, <dd>, <72>)
(4.370000, <dd>, <72>)
(4.370000, <dd>, <72>)
(4.370000, <dd>, <72>)
(3.740000, <dd>, <74>)
(3.740000, <dd>, <74>)
(3.740000, <dd>, <74>)
(3.740000, <dd>, <74>)
(9.580000, <dd>, <76>)
(9.580000, <dd>, <76>)
(9.580000, <dd>, <76>)
(9.580000, <dd>, <76>)
##END=
##END=
